cif2pos.py
   1.000
   38.8378009073876669    0.0000000000000000    0.0000000000000000
    0.0000000000000000   13.1421435162302842    0.0000000000000000
    0.0000000000000000    0.0000000000000000    3.8761186333578821
   U    Nd   O 
   43    1   88
Selective Dynamics
Cartesian
    0.0000000000000000   12.5415961264358682    0.0000000000000000    F  F  F             U1
    5.4621895998619108   10.7590203966284221    0.0000000000000000    F  F  F             U2
   10.3980833002885955    8.3565626550666252    0.0000000000000000    F  F  F             U3
   15.5376529237830621    5.9630655422753946    0.0000000000000000    F  F  F             U4
    2.2572631417059879    3.5763465375640573    0.0000000000000000    F  F  F             U5
   16.9093794536004083    9.5577642958395987    0.0000000000000000    T  T  T             U6
    3.5984856568044306    7.1654668365768481    0.0000000000000000    F  F  F             U7
    8.7596632696952792    4.7769065324977609    0.0000000000000000    F  F  F             U8
   13.6822787697355626    2.3690680926597754    0.0000000000000000    F  F  F             U9
    7.0536850033071081    1.1999332437329415    0.0000000000000000    F  F  F            U10
   12.1272088705843579   11.9459233884058946    0.0000000000000000    F  F  F            U11
    2.2566902805282858   10.1502734709906210    1.9380593166789410    F  F  F            U12
    7.0479049535727327    7.7587548233338115    1.9380593166789410    F  F  F            U13
   12.1055866533590990    5.3802238963430353    1.9380593166789410    F  F  F            U14
   16.8987980042004189    2.9731918293385435    1.9380593166789410    T  T  T            U15
    3.6080389700511883    0.5940686200274217    1.9380593166789410    F  F  F            U16
   19.6689004536938299    7.1419416816976167    1.9380593166789410    T  T  T            U17
    5.4577109662185572    4.1939867949964080    1.9380593166789410    F  F  F            U18
   10.3951533983621562    1.7899179014461486    1.9380593166789410    F  F  F            U19
   15.5979060221900845   12.5646965212581190    1.9380593166789410    F  F  F            U20
    8.7707094345716214   11.3567443110194013    1.9380593166789410    F  F  F            U21
   13.7073294697404169    8.9550312150475211    1.9380593166789410    F  F  F            U22
   25.1555221376521025    2.3690680926597754    0.0000000000000000    F  F  F            U23
   30.0781376376923859    4.7769065324977609    0.0000000000000000    F  F  F            U24
   35.2393152505832390    7.1654668365768481    0.0000000000000000    F  F  F            U25
   21.9284214537875322    9.5577642958395987    0.0000000000000000    T  T  T            U26
   36.5805377656819530    3.5763465375640573    0.0000000000000000    F  F  F            U27
   23.3001479836048730    5.9630655422753946    0.0000000000000000    F  F  F            U28
   28.4397176070990660    8.3565626550666252    0.0000000000000000    F  F  F            U29
   33.3756113075257588   10.7590203966284221    0.0000000000000000    F  F  F            U30
   26.7105920368033090   11.9459233884058946    0.0000000000000000    F  F  F            U31
   31.7841159040805579    1.1999332437329415    0.0000000000000000    F  F  F            U32
   21.9390029031872480    2.9731918293385435    1.9380593166789410    T  T  T            U33
   26.7322142540285661    5.3802238963430353    1.9380593166789410    F  F  F            U34
   31.7898959538149306    7.7587548233338115    1.9380593166789410    F  F  F            U35
   36.5811106268593775   10.1502734709906210    1.9380593166789410    F  F  F            U36
   23.2398948851975824   12.5646965212581190    1.9380593166789410    F  F  F            U37
    0.0000000000000000    5.9691035067225497    1.9380593166789410    F  F  F            U38
   25.1304714376475218    8.9550312150475211    1.9380593166789410    F  F  F            U39
   30.0670914728160454   11.3567443110194013    1.9380593166789410    F  F  F            U40
   35.2297619373364768    0.5940686200274217    1.9380593166789410    F  F  F            U41
   28.4426475090255053    1.7899179014461486    1.9380593166789410    F  F  F            U42
   33.3800899411693806    4.1939867949964080    1.9380593166789410    F  F  F            U43
   19.6689004536938299    0.6418620735377890    0.0000000000000000    T  T  T            Nd1
    3.5265359793180888    9.4925717461195340    0.0000000000000000    F  F  F             O1
    8.3259030815502459    7.1430790948186909    0.0000000000000000    F  F  F             O2
   13.2971080725899160    4.8230263686359294    0.0000000000000000    T  T  T             O3
   17.9507625260224231    2.6727917872238578    0.0000000000000000    T  T  T             O4
    4.8950428377471100    0.0038357982005944    0.0000000000000000    F  F  F             O5
    1.3896257607146396    5.9439027903910553    0.0000000000000000    F  F  F             O6
    6.6715531139645377    3.5974155403021917    0.0000000000000000    F  F  F             O7
   11.6944972569789734    1.1873498589948164    0.0000000000000000    T  T  T             O8
   16.8648868612601852   11.8578901267358390    0.0000000000000000    T  T  T             O9
   10.0035491319114485   10.7570094825430278    0.0000000000000000    T  T  T            O10
   15.0337652661705938    8.3150211620979988    0.0000000000000000    T  T  T            O11
    4.1335130404521063   11.3799473610929756    1.9380593166789410    F  F  F            O12
    9.1643084079889796    8.9562516081299890    1.9380593166789410    F  F  F            O13
   14.2740455857268191    6.5624353726662417    1.9380593166789410    T  T  T            O14
    1.2169433226715121    4.0522114164726712    1.9380593166789410    F  F  F            O15
    5.8694911458170349    1.7771752297302981    1.9380593166789410    F  F  F            O16
    2.3375284288059381    7.8313197872523093    1.9380593166789410    F  F  F            O17
    7.4753365970731540    5.3794038086724134    1.9380593166789410    F  F  F            O18
   12.4799706711054874    2.9864551707628095    1.9380593166789410    T  T  T            O19
   17.6268230557816281    0.7576710520895129    1.9380593166789410    T  T  T            O20
   10.8369956987230793   12.5762085633961398    1.9380593166789410    T  T  T            O21
   15.6448897531149065   10.2169382499445405    1.9380593166789410    T  T  T            O22
    1.3897747320298068   12.5174419532214216    1.9380593166789410    F  F  F            O23
    6.6732961525314645   10.1655755772812064    1.9380593166789410    F  F  F            O24
   11.6720605429331634    7.7585838745413440    1.9380593166789410    T  T  T            O25
   16.8032677201689395    5.2330376805517451    1.9380593166789410    T  T  T            O26
    3.5269216282222162    2.9212705686650371    1.9380593166789410    F  F  F            O27
   17.9474586117771651    9.0493056356614012    1.9380593166789410    T  T  T            O28
    4.8807374095318306    6.5778981825944740    1.9380593166789410    F  F  F            O29
   10.0006135091886641    4.1671028085139188    1.9380593166789410    T  T  T            O30
   14.9840956616154433    1.7768649067193785    1.9380593166789410    T  T  T            O31
    8.3396755003866883    0.5983072192533514    1.9380593166789410    F  F  F            O32
   13.2804831915121575   11.3429992524088465    1.9380593166789410    T  T  T            O33
    1.2168297428666399   10.6260365602132048    0.0000000000000000    F  F  F            O34
    5.8678758600724050    8.3462532187463587    0.0000000000000000    F  F  F            O35
   10.8174785084545189    5.9765512424159333    0.0000000000000000    T  T  T            O36
   15.6291446010455992    3.6122126408327104    0.0000000000000000    T  T  T            O37
    2.3496353989605940    1.2581759314163208    0.0000000000000000    F  F  F            O38
   17.7708686188671550    7.1399339760392921    0.0000000000000000    T  T  T            O39
    4.1304776787296706    4.8098921597158091    0.0000000000000000    F  F  F            O40
    9.1581162381727026    2.3979590529843464    0.0000000000000000    F  F  F            O41
   14.3012137830052506   13.1066066676366813    0.0000000000000000    T  T  T            O42
    7.4952805801415483   11.9536913608135702    0.0000000000000000    F  F  F            O43
   12.4938377017020308    9.5378586588265684    0.0000000000000000    T  T  T            O44
   23.2086563063420641    3.6122126408327104    0.0000000000000000    T  T  T            O45
   28.0203223989334163    5.9765512424159333    0.0000000000000000    T  T  T            O46
   32.9699250473152645    8.3462532187463587    0.0000000000000000    F  F  F            O47
   37.6209711645207534   10.6260365602132048    0.0000000000000000    F  F  F            O48
   24.5365871243818710   13.1066066676366813    0.0000000000000000    T  T  T            O49
   21.0669322885205084    7.1399339760392921    0.0000000000000000    T  T  T            O50
   26.3439632056856325    9.5378586588265684    0.0000000000000000    T  T  T            O51
   31.3425203272463904   11.9536913608135702    0.0000000000000000    F  F  F            O52
   36.4881655084273433    1.2581759314163208    0.0000000000000000    F  F  F            O53
   29.6796846692144172    2.3979590529843464    0.0000000000000000    F  F  F            O54
   34.7073232286579980    4.8098921597158091    0.0000000000000000    F  F  F            O55
   23.8537052457719483    1.7768649067193785    1.9380593166789410    T  T  T            O56
   28.8371873981987292    4.1671028085139188    1.9380593166789410    T  T  T            O57
   33.9570634978561046    6.5778981825944740    1.9380593166789410    F  F  F            O58
   20.8903422956104983    9.0493056356614012    1.9380593166789410    T  T  T            O59
   25.5573177158755094   11.3429992524088465    1.9380593166789410    T  T  T            O60
   22.0345331872187273    5.2330376805517451    1.9380593166789410    T  T  T            O61
   27.1657403644545035    7.7585838745413440    1.9380593166789410    T  T  T            O62
   32.1645047548561962   10.1655755772812064    1.9380593166789410    F  F  F            O63
   37.4480261753578603   12.5174419532214216    1.9380593166789410    F  F  F            O64
   30.4981254070009768    0.5983072192533514    1.9380593166789410    F  F  F            O65
   35.3108792791654551    2.9212705686650371    1.9380593166789410    F  F  F            O66
   21.2109778516063052    0.7576710520895129    1.9380593166789410    T  T  T            O67
   26.3578302362824459    2.9864551707628095    1.9380593166789410    T  T  T            O68
   31.3624643103147811    5.3794038086724134    1.9380593166789410    F  F  F            O69
   36.5002724785811878    7.8313197872523093    1.9380593166789410    F  F  F            O70
   23.1929111542724868   10.2169382499445405    1.9380593166789410    T  T  T            O71
   37.6208575847161555    4.0522114164726712    1.9380593166789410    F  F  F            O72
   24.5637553216605760    6.5624353726662417    1.9380593166789410    T  T  T            O73
   29.6734924993989573    8.9562516081299890    1.9380593166789410    F  F  F            O74
   34.7042878669358359   11.3799473610929756    1.9380593166789410    F  F  F            O75
   28.0008052086643140   12.5762085633961398    1.9380593166789410    T  T  T            O76
   32.9683097615706302    1.7771752297302981    1.9380593166789410    F  F  F            O77
   20.8870383813652438    2.6727917872238578    0.0000000000000000    T  T  T            O78
   25.5406928347974755    4.8230263686359294    0.0000000000000000    T  T  T            O79
   30.5118978258371456    7.1430790948186909    0.0000000000000000    F  F  F            O80
   35.3112649280695763    9.4925717461195340    0.0000000000000000    F  F  F            O81
   21.9729140461274817   11.8578901267358390    0.0000000000000000    T  T  T            O82
   37.4481751466730231    5.9439027903910553    0.0000000000000000    F  F  F            O83
   23.8040356412170695    8.3150211620979988    0.0000000000000000    T  T  T            O84
   28.8342517754756749   10.7570094825430278    0.0000000000000000    T  T  T            O85
   33.9427580696405542    0.0038357982005944    0.0000000000000000    F  F  F            O86
   27.1433036504086935    1.1873498589948164    0.0000000000000000    T  T  T            O87
   32.1662477934231248    3.5974155403021917    0.0000000000000000    F  F  F            O88
