cif2pos.py
   1.000
   44.1686756529434632    0.0000000000000000    0.0000000000000000
    0.0000000000000000    6.7963468884617413    0.0000000000000000
    0.0000000000000000    0.0000000000000000    3.8419033096887718
   U    Nd   O 
   23    1   48
Selective Dynamics
Cartesian
    1.6567284686217194    6.7424777399523803    0.0000000000000000    F  F  F             U1
    4.8947051251319538    2.2377087462436038    0.0000000000000000    F  F  F             U2
    8.1418556843135779    4.5295309922287226    0.0000000000000000    F  F  F             U3
   11.4006130427040855    0.0306295905242999    0.0000000000000000    T  T  T             U4
   14.6572933451320875    2.3307377965896672    0.0000000000000000    T  T  T             U5
   17.8728182891393566    4.6160427897975493    0.0000000000000000    T  T  T             U6
   29.5262638668474509    4.6006517711244426    0.0000000000000000    T  T  T             U7
   32.7621024414461175    2.3018990509111159    0.0000000000000000    T  T  T             U8
   36.0164013872886812    6.7876030423739087    0.0000000000000000    F  F  F             U9
   39.2679279738277316    4.4695045091764323    0.0000000000000000    F  F  F            U10
   42.4753634877339294    2.1729731768698324    0.0000000000000000    F  F  F            U11
    1.6574185290533838    3.3442666325340840    1.9209516548443859    F  F  F            U12
   26.3035804448092421    3.4718363190812371    1.9209516548443859    T  T  T            U13
   29.4801379518399109    1.2060325341723666    1.9209516548443859    T  T  T            U14
   11.4001072856782883    3.4291372358713015    1.9209516548443859    T  T  T            U15
    4.8941336253384096    5.6360909281144265    1.9209516548443859    F  F  F            U16
   32.7629620590870303    5.7050826309252249    1.9209516548443859    T  T  T            U17
   14.6575556136399090    5.7289133249929982    1.9209516548443859    T  T  T            U18
   36.0108289445773977    3.3895322968681780    1.9209516548443859    F  F  F            U19
    8.1434232869976828    1.1303576986414317    1.9209516548443859    F  F  F            U20
   39.2692390428326661    1.0721251852441771    1.9209516548443859    F  F  F            U21
   17.8725520883696269    1.2181207121025652    1.9209516548443859    T  T  T            U22
   42.4744243196095610    5.5708437962460584    1.9209516548443859    F  F  F            U23
   26.2869130553658970    0.0212370149871838    0.0000000000000000    T  T  T            Nd1
    0.8772368953824238    4.4514174405942022    0.0000000000000000    F  F  F             O1
    2.4891254630324666    2.2176594374174421    0.0000000000000000    F  F  F             O2
    4.0969544413613530    6.7623490519017615    0.0000000000000000    F  F  F             O3
    5.7277203279172060    4.5136492712593279    0.0000000000000000    F  F  F             O4
    7.3468045519467537    2.2575055749182256    0.0000000000000000    F  F  F             O5
    8.9765718581750402    0.0070280468307080    0.0000000000000000    F  F  F             O6
   10.5894514711712606    4.5539402874623907    0.0000000000000000    T  T  T             O7
   12.2229181457711018    2.3056323074977603    0.0000000000000000    T  T  T             O8
   13.8496428701601690    0.0562095424690474    0.0000000000000000    T  T  T             O9
   15.4955947891998029    4.6061041924679902    0.0000000000000000    T  T  T            O10
   17.0542784786570785    2.3646218061548021    0.0000000000000000    T  T  T            O11
   18.6745613558741752    0.0954613621051848    0.0000000000000000    T  T  T            O12
   25.4401280121785405    2.5668449946761824    0.0000000000000000    T  T  T            O13
   27.1739411644855871    4.5032088200011948    0.0000000000000000    T  T  T            O14
   28.6768066368130050    0.0519518047799374    0.0000000000000000    T  T  T            O15
   30.3038771430126879    2.3319599833962248    0.0000000000000000    T  T  T            O16
   31.9707363720997719    4.5745115521268067    0.0000000000000000    T  T  T            O17
   33.5833365144219016    0.0330828698195199    0.0000000000000000    T  T  T            O18
   35.2139469297576824    2.2667563953492809    0.0000000000000000    F  F  F            O19
   36.8470786732233506    4.5102682465768087    0.0000000000000000    F  F  F            O20
   38.4728549722831445    6.7453504369780051    0.0000000000000000    F  F  F            O21
   40.1182692338085261    2.1891546081282538    0.0000000000000000    F  F  F            O22
   41.6631118469448722    4.4299322426600654    0.0000000000000000    F  F  F            O23
   43.2571815119349097    6.6863960192407683    0.0000000000000000    F  F  F            O24
   10.5893117210846786    1.1551608148433929    1.9209516548443859    T  T  T            O25
   25.5374277558191984    5.4812623641232960    1.9209516548443859    T  T  T            O26
   27.0529553431131404    1.3402032001181330    1.9209516548443859    T  T  T            O27
    0.8760881045910746    1.0543836263838127    1.9209516548443859    F  F  F            O28
   28.6888110589297582    3.4881063467318976    1.9209516548443859    T  T  T            O29
   12.2229939532792926    5.7038592186356292    1.9209516548443859    T  T  T            O30
    5.7281351097978623    1.1156129177822960    1.9209516548443859    F  F  F            O31
   30.3535095876190475    5.7391784143852007    1.9209516548443859    T  T  T            O32
   31.9372264738135065    1.1905395031340551    1.9209516548443859    T  T  T            O33
   13.8494684171569649    3.4548517667394947    1.9209516548443859    T  T  T            O34
    7.3457248057978166    5.6552727609153361    1.9209516548443859    F  F  F            O35
   33.5869188371828997    3.4208963586894523    1.9209516548443859    T  T  T            O36
   35.2192540027425594    5.6672149207973161    1.9209516548443859    F  F  F            O37
    4.0970943535123734    3.3646240940204297    1.9209516548443859    F  F  F            O38
   36.8478645081964444    1.1103403505926746    1.9209516548443859    F  F  F            O39
   15.4949687304805721    1.2080575452223210    1.9209516548443859    T  T  T            O40
   38.4729163691855049    3.3464305370631529    1.9209516548443859    F  F  F            O41
   17.0548082188584971    5.7636685582968514    1.9209516548443859    T  T  T            O42
    2.4881483209231114    5.6162416723327020    1.9209516548443859    F  F  F            O43
   40.1178546313511788    5.5875427636748602    1.9209516548443859    F  F  F            O44
   41.6640535609270941    1.0323322356642102    1.9209516548443859    F  F  F            O45
    8.9772183750819732    3.4064774175835035    1.9209516548443859    F  F  F            O46
   18.6715506579585480    3.4930786456548648    1.9209516548443859    T  T  T            O47
   43.2573067434406582    3.2893811621599389    1.9209516548443859    F  F  F            O48
