cif2pos.py
   1.000
   39.1686756529434632    0.0000000000000000    0.0000000000000000
    0.0000000000000000    6.7963468884617413    0.0000000000000000
    0.0000000000000000    0.0000000000000000    3.8419033096887718
   U  Mo  O 
   23  1  48
Direct
    0.0425725813511377    0.9919898451621236    0.0000000000000000     U1
    0.1252306061327957    0.3301424521855125    0.0000000000000000     U2
    0.2083224142753579    0.6682592209404987    0.0000000000000000     U3
    0.2913339143759544    0.0065537644735159    0.0000000000000000     U4
    0.3744758282804099    0.3455140317445426    0.0000000000000000     U5
    0.4564214112160059    0.6821903246953269    0.0000000000000000     U6
    0.5423716247291779    0.0081190202988779    0.0000000000000000     U7
    0.7082419713686363    0.3320222755992219    0.0000000000000000     U9
    0.7912811239626905    0.9934308016947568    0.0000000000000000    U10
    0.8743847569045258    0.6538007684856311    0.0000000000000000    U11
    0.9564779747603538    0.3164151987259984    0.0000000000000000    U12
    0.0423249608321612    0.4922003704900817    0.5000000000000000    U13
    0.5423718181231933    0.5081209725620113    0.5000000000000000    U14
    0.6251796040196069    0.1702703796749390    0.5000000000000000    U15
    0.2913383852073679    0.5065341655409483    0.5000000000000000    U16
    0.1252753090409655    0.8299657990868852    0.5000000000000000    U17
    0.7082433128060615    0.8320512440642460    0.5000000000000000    U18
    0.3744740345932414    0.8455172077391069    0.5000000000000000    U19
    0.7912483734468765    0.4934959100541860    0.5000000000000000    U20
    0.2083010857719501    0.1682918113138570    0.5000000000000000    U21
    0.8744278073535838    0.1544427680070086    0.5000000000000000    U22
    0.4564220104709094    0.1821896354518771    0.5000000000000000    U23
    0.9564507267705693    0.8166628470054107    0.5000000000000000    U24
    0.6251811794274786    0.6702723819137688    0.0000000000000000     U8
    0.0224808430736090    0.6564186215583447    0.0000000000000000     O1
    0.0636886653046389    0.3271193444822416    0.0000000000000000     O2
    0.1048915443896661    0.9959470998357887    0.0000000000000000     O3
    0.1466447801289874    0.6651635875150959    0.0000000000000000     O4
    0.1880032487819605    0.3340063101148090    0.0000000000000000     O5
    0.2297139562592250    0.0033121219106107    0.0000000000000000     O6
    0.2710359423658133    0.6721288724106103    0.0000000000000000     O7
    0.3126854548872728    0.3415214834286786    0.0000000000000000     O8
    0.3542151307490471    0.0109661163063919    0.0000000000000000     O9
    0.3962392730380344    0.6809463739890518    0.0000000000000000    O10
    0.4357599132971117    0.3502319708317359    0.0000000000000000    O11
    0.4765876507512772    0.0175428963905517    0.0000000000000000    O12
    0.5225166149753875    0.3450363755887693    0.0000000000000000    O13
    0.5637245888160294    0.6735155541078441    0.0000000000000000    O14
    0.6048468256224027    0.0045921693007784    0.0000000000000000    O15
    0.6465831416805869    0.3352043885170772    0.0000000000000000    O16
    0.6879533261762418    0.6664713790279606    0.0000000000000000    O17
    0.7296616007503403    0.9968932837254414    0.0000000000000000    O18
    0.7709582892090765    0.3279344487053635    0.0000000000000000    O19
    0.8126013150822544    0.6584480896146090    0.0000000000000000    O20
    0.8542139313792276    0.9879333515155295    0.0000000000000000    O21
    0.8958362112081772    0.3194598916346081    0.0000000000000000    O22
    0.9360166332458491    0.6471761852005500    0.0000000000000000    O23
    0.9763642202232887    0.9843576646986207    0.0000000000000000    O24
    0.2710385430824331    0.1721451129912737    0.5000000000000000    O25
    0.5225160909999929    0.8450353095699725    0.5000000000000000    O26
    0.5637234494733647    0.1735189535934509    0.5000000000000000    O27
    0.0226575314920865    0.1540575430349804    0.5000000000000000    O28
    0.6048477949688973    0.5045814590514510    0.5000000000000000    O29
    0.3126828022208485    0.8415091964633916    0.5000000000000000    O30
    0.1466468918651032    0.1650145703993218    0.5000000000000000    O31
    0.6465817227446635    0.8351980896880420    0.5000000000000000    O32
    0.6879540877756867    0.1664366297254389    0.5000000000000000    O33
    0.3542168553634326    0.5109579513293312    0.5000000000000000    O34
    0.1880535850945080    0.8339355322937507    0.5000000000000000    O35
    0.7296469928218130    0.4969178058053387    0.5000000000000000    O36
    0.7709638555065581    0.8280166348819904    0.5000000000000000    O37
    0.1049254157142911    0.4954592958083381    0.5000000000000000    O38
    0.8126278319117688    0.1584462062368601    0.5000000000000000    O39
    0.3962408446951144    0.1809414782725156    0.5000000000000000    O40
    0.8540747370089719    0.4894011262754390    0.5000000000000000    O41
    0.4357592801152137    0.8502309913446808    0.5000000000000000    O42
    0.0639510545439137    0.8261417452185995    0.5000000000000000    O43
    0.8965304705281767    0.8179544046437215    0.5000000000000000    O44
    0.9354661323291396    0.1511016210976024    0.5000000000000000    O45
    0.2297167079925728    0.5032706364339319    0.5000000000000000    O46
    0.4765868636365695    0.5175428511396660    0.5000000000000000    O47
    0.9770225414983074    0.4813920773794607    0.5000000000000000    O48
