cif2pos.py
   1.000
   44.8378009073876669    0.0000000000000000    0.0000000000000000
    0.0000000000000000   13.1421435162302842    0.0000000000000000
    0.0000000000000000    0.0000000000000000    3.8761186333578821
   U    O 
   44   88
Selective Dynamics
Cartesian
    0.0000000000000000    0.0000000000000000    0.0000000000000000    F  F  F             U1
    5.2284161204607376   10.7451802560589087    0.0000000000000000    F  F  F             U2
   10.4554217600880097    8.3631698910587922    0.0000000000000000    T  T  T             U3
   15.6819698771137848    5.9769697345049941    0.0000000000000000    T  T  T             U4
    1.7449525921612967    3.5790607198754723    0.0000000000000000    F  F  F             U5
   17.4201661003295314    9.5596990367599641    0.0000000000000000    T  T  T             U6
    3.4855241076059058    7.1540522874264285    0.0000000000000000    F  F  F             U7
    8.7159533813398795    4.7764034849981538    0.0000000000000000    F  F  F             U8
   13.9410589811258578    2.3922713928763009    0.0000000000000000    T  T  T             U9
    6.9723741368713279    1.1897406613873498    0.0000000000000000    F  F  F            U10
   12.1968456015231812   11.9501541148875621    0.0000000000000000    T  T  T            U11
    1.7413056230969202   10.1480092759722726    1.9380593166789410    F  F  F            U12
    6.9717017966228543    7.7606600130107068    1.9380593166789410    F  F  F            U13
   12.1994501413801846    5.3782643776621697    1.9380593166789410    T  T  T            U14
   17.4261404400993527    2.9887179496244634    1.9380593166789410    T  T  T            U15
    3.4874125383237313    0.5904616553792786    1.9380593166789410    F  F  F            U16
   25.6689004536938299    6.5710717581151421    1.9380593166789410    T  T  T            U17
    5.2327062142086040    4.1742149083350970    1.9380593166789410    F  F  F            U18
   10.4567892252517929    1.7923688213691695    1.9380593166789410    T  T  T            U19
   15.6806180447862875   12.5484581846747876    1.9380593166789410    T  T  T            U20
    8.7132941530100858   11.3478260649802785    1.9380593166789410    F  F  F            U21
   13.9380980016510101    8.9642992007715190    1.9380593166789410    T  T  T            U22
   25.6689004536938299    0.0000000000000000    0.0000000000000000    T  T  T            U23
   30.8960196341184528   10.7486791002269495    0.0000000000000000    T  T  T            U24
   36.1236293738767458    8.3677860930770329    0.0000000000000000    F  F  F            U25
   41.3482705780634632    5.9762432945969124    0.0000000000000000    F  F  F            U26
   27.4142115478551958    3.5849445788971228    0.0000000000000000    T  T  T            U27
   43.0875566564653667    9.5518367692286450    0.0000000000000000    F  F  F            U28
   29.1500429900394664    7.1684089563650097    0.0000000000000000    T  T  T            U29
   34.3846997792939462    4.7811082371769507    0.0000000000000000    T  T  T            U30
   39.6108797187004384    2.4012502611047295    0.0000000000000000    F  F  F            U31
   32.6405443426484183    1.1955588629673335    0.0000000000000000    T  T  T            U32
   37.8667807137792352   11.9543635314382755    0.0000000000000000    F  F  F            U33
   27.4026331628565991   10.1488135936287200    1.9380593166789410    T  T  T            U34
   32.6369485270921373    7.7602221614803018    1.9380593166789410    T  T  T            U35
   37.8659708727569324    5.3833691512241124    1.9380593166789410    F  F  F            U36
   43.0939664441770915    2.9867340752329103    1.9380593166789410    F  F  F            U37
   29.1568731993494303    0.5948748412631096    1.9380593166789410    T  T  T            U38
    0.0000000000000000    6.5710717581151421    1.9380593166789410    F  F  F            U39
   30.9015751085116861    4.1878284436215356    1.9380593166789410    T  T  T            U40
   36.1263385378959683    1.7962244069418420    1.9380593166789410    F  F  F            U41
   41.3492309277259977   12.5493579874099943    1.9380593166789410    F  F  F            U42
   34.3820419771914842   11.3510942727932882    1.9380593166789410    T  T  T            U43
   39.6062632136028796    8.9657080472881283    1.9380593166789410    F  F  F            U44
    3.0377384583895850    9.5536583705312292    0.0000000000000000    F  F  F             O1
    8.2718665001563352    7.1699415239100031    0.0000000000000000    F  F  F             O2
   13.4998120849429917    4.7866931877550147    0.0000000000000000    T  T  T             O3
   18.7309711895642117    2.3996053378620226    0.0000000000000000    T  T  T             O4
    4.7922251134234592    0.0000000000000000    0.0000000000000000    F  F  F             O5
    1.3199469222692344    5.9666723480317758    0.0000000000000000    F  F  F             O6
    6.5320247601179462    3.5858015185119476    0.0000000000000000    F  F  F             O7
   11.7540041852008272    1.2050143784316325    0.0000000000000000    T  T  T             O8
   16.9789446999654885   11.9590849188466404    0.0000000000000000    T  T  T             O9
   10.0149465512769744   10.7594520786695647    0.0000000000000000    T  T  T            O10
   15.2404726224565028    8.3735473371152445    0.0000000000000000    T  T  T            O11
    3.9231849726579124   11.3335952618311957    1.9380593166789410    F  F  F            O12
    9.1524573044692321    8.9526400469280247    1.9380593166789410    F  F  F            O13
   14.3766753402703724    6.5710717581151421    1.9380593166789410    T  T  T            O14
    0.4419399973987599    4.1760603616978722    1.9380593166789410    F  F  F            O15
    5.6726026227940949    1.7798707601097481    1.9380593166789410    F  F  F            O16
    2.1794651455251421    7.7408511317647299    1.9380593166789410    F  F  F            O17
    7.4177168044755426    5.3637738503283368    1.9380593166789410    F  F  F            O18
   12.6437717679848323    2.9807660833849439    1.9380593166789410    T  T  T            O19
   17.8701149378673101    0.5924488087862186    1.9380593166789410    T  T  T            O20
   10.8990044305464338   12.5405982174114836    1.9380593166789410    T  T  T            O21
   16.1193025738865003   10.1538158237795404    1.9380593166789410    T  T  T            O22
    1.2970982661874704   12.5433534636543413    1.9380593166789410    F  F  F            O23
    6.5252763260015367   10.1583982703098137    1.9380593166789410    F  F  F            O24
   11.7521885691205075    7.7761229795882612    1.9380593166789410    T  T  T            O25
   16.9790577356910326    5.3852560018519560    1.9380593166789410    T  T  T            O26
    3.0421405515912312    2.9858260035883437    1.9380593166789410    F  F  F            O27
   18.7147931685932640    8.9715359073857055    1.9380593166789410    T  T  T            O28
    4.7922251134234592    6.5710717581151421    1.9380593166789410    F  F  F            O29
   10.0188509114684994    4.1880656455324132    1.9380593166789410    T  T  T            O30
   15.2439826432655110    1.8026756081203739    1.9380593166789410    T  T  T            O31
    8.2706248491773433    0.5993953027618844    1.9380593166789410    F  F  F            O32
   13.4957747615130277   11.3604846570037186    1.9380593166789410    T  T  T            O33
    0.4379550022539981   10.7336475394698549    0.0000000000000000    F  F  F            O34
    5.6726418847877529    8.3507254407338323    0.0000000000000000    F  F  F            O35
   10.9030327558742961    5.9685066092168162    0.0000000000000000    T  T  T            O36
   16.1291862206737022    3.5794497214326118    0.0000000000000000    T  T  T            O37
    2.1913987378335875    1.1753570872153487    0.0000000000000000    F  F  F            O38
   17.8680164446056935    7.1596460125582118    0.0000000000000000    T  T  T            O39
    3.9357537706298067    4.7628624088831026    0.0000000000000000    F  F  F            O40
    9.1549506386452659    2.3818095548743745    0.0000000000000000    F  F  F            O41
   14.3766753402703724    0.0000000000000000    0.0000000000000000    T  T  T            O42
    7.4145951212292225   11.9346018939968275    0.0000000000000000    F  F  F            O43
   12.6404343359621283    9.5532234275237595    0.0000000000000000    T  T  T            O44
   28.7032804757498745    9.5524491603749127    0.0000000000000000    T  T  T            O45
   33.9379147030300459    7.1746702867283920    0.0000000000000000    T  T  T            O46
   39.1601947429177031    4.7930520937605747    0.0000000000000000    F  F  F            O47
   44.4129510814797399    2.3910289350821166    0.0000000000000000    F  F  F            O48
   30.4611255671172891    0.0000000000000000    0.0000000000000000    T  T  T            O49
   26.9751266217926613    5.9883148921527178    0.0000000000000000    T  T  T            O50
   32.1996781802595677    3.5937994694567061    0.0000000000000000    T  T  T            O51
   37.4234684436213456    1.2092369390252824    0.0000000000000000    F  F  F            O52
   42.6489032579774729   11.9630103303591238    0.0000000000000000    F  F  F            O53
   35.6846394907321667   10.7641769524609732    0.0000000000000000    F  F  F            O54
   40.9063345132120730    8.3771607529589733    0.0000000000000000    F  F  F            O55
   29.5952967719180400   11.3370219534677119    1.9380593166789410    T  T  T            O56
   34.8230679944286550    8.9571025025785804    1.9380593166789410    T  T  T            O57
   40.0455757939642254    6.5710717581151421    1.9380593166789410    F  F  F            O58
   26.1151734234251300    4.1790035667029137    1.9380593166789410    T  T  T            O59
   31.3402936677199868    1.7861188143560178    1.9380593166789410    T  T  T            O60
   27.8283868925294406    7.7683599406524442    1.9380593166789410    T  T  T            O61
   33.0873621185153155    5.3682710311564108    1.9380593166789410    T  T  T            O62
   38.3147008056189975    2.9847165901639232    1.9380593166789410    F  F  F            O63
   43.5436178836206977    0.6020683195017086    1.9380593166789410    F  F  F            O64
   36.5695387405099126   12.5455920867253052    1.9380593166789410    F  F  F            O65
   41.7938858847177954   10.1547870516694339    1.9380593166789410    F  F  F            O66
   26.9695467350116225   12.5531513941347992    1.9380593166789410    T  T  T            O67
   32.1912508647262214   10.1587008824253164    1.9380593166789410    T  T  T            O68
   37.4230839063297864    7.7796770608757182    1.9380593166789410    F  F  F            O69
   42.6476375079004697    5.3812349696563784    1.9380593166789410    F  F  F            O70
   28.7117792199815085    2.9968964900960775    1.9380593166789410    T  T  T            O71
   44.3852704395831381    8.9488396677523809    1.9380593166789410    F  F  F            O72
   30.4611255671172891    6.5710717581151421    1.9380593166789410    T  T  T            O73
   35.6875327850098429    4.1914437836375305    1.9380593166789410    F  F  F            O74
   40.9178699542767745    1.8107038807348059    1.9380593166789410    F  F  F            O75
   33.9382386151297482    0.6027010824928164    1.9380593166789410    T  T  T            O76
   39.1677699209864727   11.3636415205323917    1.9380593166789410    F  F  F            O77
   26.1048718308733925   10.7470088922481519    0.0000000000000000    T  T  T            O78
   31.3372797687074360    8.3444938857459068    0.0000000000000000    T  T  T            O79
   36.5662709077284873    5.9758339657048651    0.0000000000000000    F  F  F            O80
   41.7776620632155442    3.5898498044605804    0.0000000000000000    F  F  F            O81
   27.8602933237797856    1.1876408787284014    0.0000000000000000    T  T  T            O82
   43.5187950553671712    7.1619918493380466    0.0000000000000000    F  F  F            O83
   29.6041514970941293    4.7822314491407090    0.0000000000000000    T  T  T            O84
   34.8239148509355445    2.3850443980678762    0.0000000000000000    T  T  T            O85
   40.0455757939642254    0.0000000000000000    0.0000000000000000    F  F  F            O86
   33.0829570016910566   11.9365552576457912    0.0000000000000000    T  T  T            O87
   38.3090460957021790    9.5569067808168384    0.0000000000000000    F  F  F            O88
