cif2pos.py
   1.000
   43.8378009073876669    0.0000000000000000    0.0000000000000000
    0.0000000000000000   13.1421435162302842    0.0000000000000000
    0.0000000000000000    0.0000000000000000    3.8761186333578821
   U    Nd   O 
   43    1   88
Selective Dynamics
Cartesian
    0.0000000000000000   12.5415961264358682    0.0000000000000000    F  F  F             U1
    5.4621895998619117   10.7590203966284221    0.0000000000000000    F  F  F             U2
   10.3980833002885973    8.3565626550666252    0.0000000000000000    T  T  T             U3
   15.5376529237830656    5.9630655422753946    0.0000000000000000    T  T  T             U4
    2.2572631417059879    3.5763465375640573    0.0000000000000000    F  F  F             U5
   16.9093794536004083    9.5577642958395987    0.0000000000000000    T  T  T             U6
    3.5984856568044314    7.1654668365768481    0.0000000000000000    F  F  F             U7
    8.7596632696952792    4.7769065324977609    0.0000000000000000    F  F  F             U8
   13.6822787697355608    2.3690680926597754    0.0000000000000000    T  T  T             U9
    7.0536850033071081    1.1999332437329415    0.0000000000000000    F  F  F            U10
   12.1272088705843579   11.9459233884058946    0.0000000000000000    T  T  T            U11
    2.2566902805282862   10.1502734709906210    1.9380593166789410    F  F  F            U12
    7.0479049535727327    7.7587548233338115    1.9380593166789410    F  F  F            U13
   12.1055866533590990    5.3802238963430353    1.9380593166789410    T  T  T            U14
   16.8987980042004224    2.9731918293385435    1.9380593166789410    T  T  T            U15
    3.6080389700511888    0.5940686200274217    1.9380593166789410    F  F  F            U16
   24.6689004536938299    7.1419416816976167    1.9380593166789410    T  T  T            U17
    5.4577109662185590    4.1939867949964080    1.9380593166789410    F  F  F            U18
   10.3951533983621580    1.7899179014461486    1.9380593166789410    T  T  T            U19
   15.5979060221900880   12.5646965212581190    1.9380593166789410    T  T  T            U20
    8.7707094345716214   11.3567443110194013    1.9380593166789410    F  F  F            U21
   13.7073294697404169    8.9550312150475211    1.9380593166789410    T  T  T            U22
   30.1555221376521061    2.3690680926597754    0.0000000000000000    T  T  T            U23
   35.0781376376923788    4.7769065324977609    0.0000000000000000    F  F  F            U24
   40.2393152505832461    7.1654668365768481    0.0000000000000000    F  F  F            U25
   26.9284214537875322    9.5577642958395987    0.0000000000000000    T  T  T            U26
   41.5805377656819530    3.5763465375640573    0.0000000000000000    F  F  F            U27
   28.3001479836048695    5.9630655422753946    0.0000000000000000    T  T  T            U28
   33.4397176070990696    8.3565626550666252    0.0000000000000000    T  T  T            U29
   38.3756113075257659   10.7590203966284221    0.0000000000000000    F  F  F            U30
   31.7105920368033161   11.9459233884058946    0.0000000000000000    T  T  T            U31
   36.7841159040805650    1.1999332437329415    0.0000000000000000    F  F  F            U32
   26.9390029031872338    2.9731918293385435    1.9380593166789410    T  T  T            U33
   31.7322142540285626    5.3802238963430353    1.9380593166789410    T  T  T            U34
   36.7898959538149342    7.7587548233338115    1.9380593166789410    F  F  F            U35
   41.5811106268593917   10.1502734709906210    1.9380593166789410    F  F  F            U36
   28.2398948851975753   12.5646965212581190    1.9380593166789410    T  T  T            U37
    0.0000000000000000    5.9691035067225497    1.9380593166789410    F  F  F            U38
   30.1304714376475253    8.9550312150475211    1.9380593166789410    T  T  T            U39
   35.0670914728160454   11.3567443110194013    1.9380593166789410    F  F  F            U40
   40.2297619373364768    0.5940686200274217    1.9380593166789410    F  F  F            U41
   33.4426475090255053    1.7899179014461486    1.9380593166789410    T  T  T            U42
   38.3800899411693806    4.1939867949964080    1.9380593166789410    F  F  F            U43
   24.6689004536938299    0.6418620735377890    0.0000000000000000    T  T  T            Nd1
    3.5265359793180897    9.4925717461195340    0.0000000000000000    F  F  F             O1
    8.3259030815502459    7.1430790948186909    0.0000000000000000    F  F  F             O2
   13.2971080725899160    4.8230263686359294    0.0000000000000000    T  T  T             O3
   17.9507625260224231    2.6727917872238578    0.0000000000000000    T  T  T             O4
    4.8950428377471100    0.0038357982005944    0.0000000000000000    F  F  F             O5
    1.3896257607146398    5.9439027903910553    0.0000000000000000    F  F  F             O6
    6.6715531139645377    3.5974155403021917    0.0000000000000000    F  F  F             O7
   11.6944972569789751    1.1873498589948164    0.0000000000000000    T  T  T             O8
   16.8648868612601852   11.8578901267358390    0.0000000000000000    T  T  T             O9
   10.0035491319114502   10.7570094825430278    0.0000000000000000    T  T  T            O10
   15.0337652661705938    8.3150211620979988    0.0000000000000000    T  T  T            O11
    4.1335130404521072   11.3799473610929756    1.9380593166789410    F  F  F            O12
    9.1643084079889796    8.9562516081299890    1.9380593166789410    F  F  F            O13
   14.2740455857268227    6.5624353726662417    1.9380593166789410    T  T  T            O14
    1.2169433226715121    4.0522114164726712    1.9380593166789410    F  F  F            O15
    5.8694911458170367    1.7771752297302981    1.9380593166789410    F  F  F            O16
    2.3375284288059381    7.8313197872523093    1.9380593166789410    F  F  F            O17
    7.4753365970731549    5.3794038086724134    1.9380593166789410    F  F  F            O18
   12.4799706711054892    2.9864551707628095    1.9380593166789410    T  T  T            O19
   17.6268230557816281    0.7576710520895129    1.9380593166789410    T  T  T            O20
   10.8369956987230829   12.5762085633961398    1.9380593166789410    T  T  T            O21
   15.6448897531149029   10.2169382499445405    1.9380593166789410    T  T  T            O22
    1.3897747320298068   12.5174419532214216    1.9380593166789410    F  F  F            O23
    6.6732961525314654   10.1655755772812064    1.9380593166789410    F  F  F            O24
   11.6720605429331634    7.7585838745413440    1.9380593166789410    T  T  T            O25
   16.8032677201689395    5.2330376805517451    1.9380593166789410    T  T  T            O26
    3.5269216282222167    2.9212705686650371    1.9380593166789410    F  F  F            O27
   17.9474586117771686    9.0493056356614012    1.9380593166789410    T  T  T            O28
    4.8807374095318306    6.5778981825944740    1.9380593166789410    F  F  F            O29
   10.0006135091886641    4.1671028085139188    1.9380593166789410    T  T  T            O30
   14.9840956616154486    1.7768649067193785    1.9380593166789410    T  T  T            O31
    8.3396755003866883    0.5983072192533514    1.9380593166789410    F  F  F            O32
   13.2804831915121575   11.3429992524088465    1.9380593166789410    T  T  T            O33
    1.2168297428666399   10.6260365602132048    0.0000000000000000    F  F  F            O34
    5.8678758600724059    8.3462532187463587    0.0000000000000000    F  F  F            O35
   10.8174785084545189    5.9765512424159333    0.0000000000000000    T  T  T            O36
   15.6291446010456010    3.6122126408327104    0.0000000000000000    T  T  T            O37
    2.3496353989605940    1.2581759314163208    0.0000000000000000    F  F  F            O38
   17.7708686188671550    7.1399339760392921    0.0000000000000000    T  T  T            O39
    4.1304776787296724    4.8098921597158091    0.0000000000000000    F  F  F            O40
    9.1581162381727026    2.3979590529843464    0.0000000000000000    F  F  F            O41
   14.3012137830052506   13.1066066676366813    0.0000000000000000    T  T  T            O42
    7.4952805801415501   11.9536913608135702    0.0000000000000000    F  F  F            O43
   12.4938377017020361    9.5378586588265684    0.0000000000000000    T  T  T            O44
   28.2086563063420677    3.6122126408327104    0.0000000000000000    T  T  T            O45
   33.0203223989334234    5.9765512424159333    0.0000000000000000    T  T  T            O46
   37.9699250473152787    8.3462532187463587    0.0000000000000000    F  F  F            O47
   42.6209711645207605   10.6260365602132048    0.0000000000000000    F  F  F            O48
   29.5365871243818638   13.1066066676366813    0.0000000000000000    T  T  T            O49
   26.0669322885205084    7.1399339760392921    0.0000000000000000    T  T  T            O50
   31.3439632056856254    9.5378586588265684    0.0000000000000000    T  T  T            O51
   36.3425203272464046   11.9536913608135702    0.0000000000000000    F  F  F            O52
   41.4881655084273433    1.2581759314163208    0.0000000000000000    F  F  F            O53
   34.6796846692144243    2.3979590529843464    0.0000000000000000    F  F  F            O54
   39.7073232286579980    4.8098921597158091    0.0000000000000000    F  F  F            O55
   28.8537052457719483    1.7768649067193785    1.9380593166789410    T  T  T            O56
   33.8371873981987221    4.1671028085139188    1.9380593166789410    T  T  T            O57
   38.9570634978561117    6.5778981825944740    1.9380593166789410    F  F  F            O58
   25.8903422956105018    9.0493056356614012    1.9380593166789410    T  T  T            O59
   30.5573177158755058   11.3429992524088465    1.9380593166789410    T  T  T            O60
   27.0345331872187238    5.2330376805517451    1.9380593166789410    T  T  T            O61
   32.1657403644545070    7.7585838745413440    1.9380593166789410    T  T  T            O62
   37.1645047548562033   10.1655755772812064    1.9380593166789410    F  F  F            O63
   42.4480261753578603   12.5174419532214216    1.9380593166789410    F  F  F            O64
   35.4981254070009697    0.5983072192533514    1.9380593166789410    F  F  F            O65
   40.3108792791654622    2.9212705686650371    1.9380593166789410    F  F  F            O66
   26.2109778516063088    0.7576710520895129    1.9380593166789410    T  T  T            O67
   31.3578302362824317    2.9864551707628095    1.9380593166789410    T  T  T            O68
   36.3624643103147775    5.3794038086724134    1.9380593166789410    F  F  F            O69
   41.5002724785811949    7.8313197872523093    1.9380593166789410    F  F  F            O70
   28.1929111542724797   10.2169382499445405    1.9380593166789410    T  T  T            O71
   42.6208575847161697    4.0522114164726712    1.9380593166789410    F  F  F            O72
   29.5637553216605689    6.5624353726662417    1.9380593166789410    T  T  T            O73
   34.6734924993989679    8.9562516081299890    1.9380593166789410    F  F  F            O74
   39.7042878669358430   11.3799473610929756    1.9380593166789410    F  F  F            O75
   33.0008052086643175   12.5762085633961398    1.9380593166789410    T  T  T            O76
   37.9683097615706302    1.7771752297302981    1.9380593166789410    F  F  F            O77
   25.8870383813652438    2.6727917872238578    0.0000000000000000    T  T  T            O78
   30.5406928347974720    4.8230263686359294    0.0000000000000000    T  T  T            O79
   35.5118978258371385    7.1430790948186909    0.0000000000000000    F  F  F            O80
   40.3112649280695763    9.4925717461195340    0.0000000000000000    F  F  F            O81
   26.9729140461274817   11.8578901267358390    0.0000000000000000    T  T  T            O82
   42.4481751466730231    5.9439027903910553    0.0000000000000000    F  F  F            O83
   28.8040356412170802    8.3150211620979988    0.0000000000000000    T  T  T            O84
   33.8342517754756784   10.7570094825430278    0.0000000000000000    T  T  T            O85
   38.9427580696405613    0.0038357982005944    0.0000000000000000    F  F  F            O86
   32.1433036504086900    1.1873498589948164    0.0000000000000000    T  T  T            O87
   37.1662477934231177    3.5974155403021917    0.0000000000000000    F  F  F            O88
