cif2pos.py
   1.000
   39.3378009073876669    0.0000000000000000    0.0000000000000000
    0.0000000000000000   13.1421435162302842    0.0000000000000000
    0.0000000000000000    0.0000000000000000    3.8761186333578821
   U    O 
   44   88
Selective Dynamics
Cartesian
    0.0000000000000000   12.5551636873405776    0.0000000000000000    F  F  F             U1
    5.4556193949366438   10.7650118679051516    0.0000000000000000    F  F  F             U2
   10.4048822310196449    8.3614122636818404    0.0000000000000000    T  T  T             U3
   15.5951848087538405    5.9743136483512425    0.0000000000000000    T  T  T             U4
    2.2419553594642090    3.5835709747557116    0.0000000000000000    F  F  F             U5
   16.9240382186980654    9.5607335725832900    0.0000000000000000    T  T  T             U6
    3.5869503846652369    7.1643941168445258    0.0000000000000000    F  F  F             U7
    8.7664271818685293    4.7865274781975184    0.0000000000000000    F  F  F             U8
   13.7151259357491853    2.3872923175265810    0.0000000000000000    T  T  T             U9
    7.0388639731294500    1.1886095507572638    0.0000000000000000    F  F  F            U10
   12.1167571663365674   11.9497995085851354    0.0000000000000000    T  T  T            U11
    2.2562447583645908   10.1626129082921235    1.9380593166789410    F  F  F            U12
    7.0515223280738386    7.7723041446955925    1.9380593166789410    F  F  F            U13
   12.1278750098566377    5.3821097424703677    1.9380593166789410    T  T  T            U14
   16.9269919369294790    2.9827641868538479    1.9380593166789410    T  T  T            U15
    3.5588158581235501    0.5837924348378309    1.9380593166789410    F  F  F            U16
   20.1689004536938370    7.1323589743255820    1.9380593166789410    T  T  T            U17
    5.4523417914615369    4.1824315551420614    1.9380593166789410    F  F  F            U18
   10.3987210777918282    1.7855466578900987    1.9380593166789410    T  T  T            U19
   15.5800027376662040   12.5526185972609898    1.9380593166789410    T  T  T            U20
    8.7618697554031879   11.3489733561662280    1.9380593166789410    F  F  F            U21
   13.7151923676295748    8.9508375350776657    1.9380593166789410    T  T  T            U22
   20.1689004536938370    0.5577946303503825    0.0000000000000000    T  T  T            U23
   25.6226749716384816    2.3872923175265810    0.0000000000000000    T  T  T            U24
   30.5713737255191411    4.7865274781975184    0.0000000000000000    F  F  F            U25
   35.7508505227224305    7.1643941168445258    0.0000000000000000    F  F  F            U26
   22.4137626886898751    9.5607335725832900    0.0000000000000000    T  T  T            U27
   37.0958455479234530    3.5835709747557116    0.0000000000000000    F  F  F            U28
   23.7426160986340946    5.9743136483512425    0.0000000000000000    T  T  T            U29
   28.9329186763680219    8.3614122636818404    0.0000000000000000    T  T  T            U30
   33.8821815124510266   10.7650118679051516    0.0000000000000000    F  F  F            U31
   27.2210437410510977   11.9497995085851354    0.0000000000000000    T  T  T            U32
   32.2989369342582222    1.1886095507572638    0.0000000000000000    F  F  F            U33
   22.4108089704581879    2.9827641868538479    1.9380593166789410    T  T  T            U34
   27.2099258975310363    5.3821097424703677    1.9380593166789410    T  T  T            U35
   32.2862785793138301    7.7723041446955925    1.9380593166789410    F  F  F            U36
   37.0815561490230792   10.1626129082921235    1.9380593166789410    F  F  F            U37
   23.7577981697214682   12.5526185972609898    1.9380593166789410    T  T  T            U38
    0.0000000000000000    5.9944984735779778    1.9380593166789410    F  F  F            U39
   25.6226085397583603    8.9508375350776657    1.9380593166789410    T  T  T            U40
   30.5759311519844772   11.3489733561662280    1.9380593166789410    F  F  F            U41
   35.7789850492641079    0.5837924348378309    1.9380593166789410    F  F  F            U42
   28.9390798295958405    1.7855466578900987    1.9380593166789410    T  T  T            U43
   33.8854591159264018    4.1824315551420614    1.9380593166789410    F  F  F            U44
    3.5162105320509816    9.4920583288527851    0.0000000000000000    F  F  F             O1
    8.3415292521060032    7.1700188456869389    0.0000000000000000    F  F  F             O2
   13.2988569202578244    4.7894199590920072    0.0000000000000000    T  T  T             O3
   17.9518558462467652    2.4902529087688912    0.0000000000000000    T  T  T             O4
    4.8437705546808720    0.0208387775919930    0.0000000000000000    F  F  F             O5
    1.3934572286513520    5.9524228916072630    0.0000000000000000    F  F  F             O6
    6.6691481135001780    3.5968748458414410    0.0000000000000000    F  F  F             O7
   11.6801746448431203    1.1888915926260173    0.0000000000000000    T  T  T             O8
   16.8696652446687914   11.8814199269017724    0.0000000000000000    T  T  T             O9
   10.0097310679866442   10.7379853920983894    0.0000000000000000    T  T  T            O10
   15.0350921395398291    8.3369211521748792    0.0000000000000000    T  T  T            O11
    4.1395279350285925   11.3751313849136064    1.9380593166789410    F  F  F            O12
    9.1613690069501992    8.9705719082419773    1.9380593166789410    F  F  F            O13
   14.3226094847089449    6.5373035435154474    1.9380593166789410    T  T  T            O14
    1.2148895111030407    4.0732440723852283    1.9380593166789410    F  F  F            O15
    5.8695471177617344    1.7823318017075982    1.9380593166789410    F  F  F            O16
    2.3065839173730436    7.8405540140919019    1.9380593166789410    F  F  F            O17
    7.4855494254704267    5.3841661512091274    1.9380593166789410    F  F  F            O18
   12.4966542800722706    2.9757614371303402    1.9380593166789410    T  T  T            O19
   17.7762485570636954    0.6149672299900878    1.9380593166789410    T  T  T            O20
   10.8198584922537560   12.5478295993454445    1.9380593166789410    T  T  T            O21
   15.6516087384441764   10.2327380011681282    1.9380593166789410    T  T  T            O22
    1.4279645139502883   12.5018666887138803    1.9380593166789410    F  F  F            O23
    6.6766976425797893   10.1692701388308482    1.9380593166789410    F  F  F            O24
   11.7025796612835080    7.7545073705748591    1.9380593166789410    T  T  T            O25
   16.8918449624476992    5.3065961275820799    1.9380593166789410    T  T  T            O26
    3.5107865472023096    2.9083148184844974    1.9380593166789410    F  F  F            O27
   17.9511926457021822    9.0686262581668426    1.9380593166789410    T  T  T            O28
    4.8682253614092259    6.5819985872445868    1.9380593166789410    F  F  F            O29
   10.0014740884261872    4.1879357346581818    1.9380593166789410    T  T  T            O30
   15.0386739736411670    1.7692232939570103    1.9380593166789410    T  T  T            O31
    8.3252409723062559    0.5679224581755539    1.9380593166789410    F  F  F            O32
   13.2941862577574827   11.3851002430138948    1.9380593166789410    T  T  T            O33
    1.2144482588566576   10.6569643430564263    0.0000000000000000    F  F  F            O34
    5.8680091834136592    8.3510856900881194    0.0000000000000000    F  F  F            O35
   10.8394463112941111    6.0027180709076458    0.0000000000000000    T  T  T            O36
   15.6539016197582654    3.6568321245706512    0.0000000000000000    T  T  T            O37
    2.2525242611070686    1.2574675965506854    0.0000000000000000    F  F  F            O38
   17.7756428980869963    7.1930918315647627    0.0000000000000000    T  T  T            O39
    4.1279198797922101    4.8027393344133209    0.0000000000000000    F  F  F            O40
    9.1634836254952408    2.3833135623170136    0.0000000000000000    F  F  F            O41
   14.3015532515083468   13.1370019424552815    0.0000000000000000    T  T  T            O42
    7.4622789870973190   11.9548851640754883    0.0000000000000000    F  F  F            O43
   12.5027155451807790    9.5429396595563922    0.0000000000000000    T  T  T            O44
   23.6838992876294014    3.6568321245706512    0.0000000000000000    T  T  T            O45
   28.4983545960938294    6.0027180709076458    0.0000000000000000    T  T  T            O46
   33.4697917239740050    8.3510856900881194    0.0000000000000000    F  F  F            O47
   38.1233526485310108   10.6569643430564263    0.0000000000000000    F  F  F            O48
   25.0362476558790448   13.1370019424552815    0.0000000000000000    T  T  T            O49
   21.5621580093003935    7.1930918315647627    0.0000000000000000    T  T  T            O50
   26.8350853622068932    9.5429396595563922    0.0000000000000000    T  T  T            O51
   31.8755219202906233   11.9548851640754883    0.0000000000000000    F  F  F            O52
   37.0852766462808745    1.2574675965506854    0.0000000000000000    F  F  F            O53
   30.1743172818921508    2.3833135623170136    0.0000000000000000    F  F  F            O54
   35.2098810275954577    4.8027393344133209    0.0000000000000000    F  F  F            O55
   24.2991269337465070    1.7692232939570103    1.9380593166789410    T  T  T            O56
   29.3363268189612079    4.1879357346581818    1.9380593166789410    T  T  T            O57
   34.4695755459784507    6.5819985872445868    1.9380593166789410    F  F  F            O58
   21.3866082616854882    9.0686262581668426    1.9380593166789410    T  T  T            O59
   26.0436146496301895   11.3851002430138948    1.9380593166789410    T  T  T            O60
   22.4459559449399748    5.3065961275820799    1.9380593166789410    T  T  T            O61
   27.6352212461038889    7.7545073705748591    1.9380593166789410    T  T  T            O62
   32.6611032648078776   10.1692701388308482    1.9380593166789410    F  F  F            O63
   37.9098363934373737   12.5018666887138803    1.9380593166789410    F  F  F            O64
   31.0125599350816863    0.5679224581755539    1.9380593166789410    F  F  F            O65
   35.8270143601853590    2.9083148184844974    1.9380593166789410    F  F  F            O66
   21.5615523503242414    0.6149672299900878    1.9380593166789410    T  T  T            O67
   26.8411466273153927    2.9757614371303402    1.9380593166789410    T  T  T            O68
   31.8522514819175129    5.3841661512091274    1.9380593166789410    F  F  F            O69
   37.0312169900143502    7.8405540140919019    1.9380593166789410    F  F  F            O70
   23.6861921689432187   10.2327380011681282    1.9380593166789410    T  T  T            O71
   38.1229113962846213    4.0732440723852283    1.9380593166789410    F  F  F            O72
   25.0151914226787184    6.5373035435154474    1.9380593166789410    T  T  T            O73
   30.1764319004374677    8.9705719082419773    1.9380593166789410    F  F  F            O74
   35.1982729723593479   11.3751313849136064    1.9380593166789410    F  F  F            O75
   28.5179424151339163   12.5478295993454445    1.9380593166789410    T  T  T            O76
   33.4682537896259333    1.7823318017075982    1.9380593166789410    F  F  F            O77
   21.3859450611409017    2.4902529087688912    0.0000000000000000    T  T  T            O78
   26.0389439871295743    4.7894199590920072    0.0000000000000000    T  T  T            O79
   30.9962716552813866    7.1700188456869389    0.0000000000000000    F  F  F            O80
   35.8215903753366831    9.4920583288527851    0.0000000000000000    F  F  F            O81
   22.4681356627188755   11.8814199269017724    0.0000000000000000    T  T  T            O82
   37.9443436787363169    5.9524228916072630    0.0000000000000000    F  F  F            O83
   24.3027087678478360    8.3369211521748792    0.0000000000000000    T  T  T            O84
   29.3280698394007473   10.7379853920983894    0.0000000000000000    T  T  T            O85
   34.4940303527067940    0.0208387775919930    0.0000000000000000    F  F  F            O86
   27.6576262625445430    1.1888915926260173    0.0000000000000000    T  T  T            O87
   32.6686527938874889    3.5968748458414410    0.0000000000000000    F  F  F            O88
