cif2pos.py
   1.000
   40.1686756529434632    0.0000000000000000    0.0000000000000000
    0.0000000000000000    6.7963468884617413    0.0000000000000000
    0.0000000000000000    0.0000000000000000    3.8419033096887718
   U    O 
   24   48
Selective Dynamics
Cartesian
    1.6675116306511981    6.7419070975532431    0.0000000000000000    F  F  F             U1
    4.9051169934369643    2.2437626276601375    0.0000000000000000    F  F  F             U2
    8.1597130759896395    4.5417214769248258    0.0000000000000000    F  F  F             U3
   11.4314721026271169    0.0501477851143431    0.0000000000000000    T  T  T             U4
   14.7032130734177962    2.3541800532505470    0.0000000000000000    T  T  T             U5
   17.9296344611245040    4.6416551407291102    0.0000000000000000    T  T  T             U6
   22.2510352522671724    0.0205849499195458    0.0000000000000000    T  T  T             U7
   25.4762855503613039    4.5356664184215267    0.0000000000000000    T  T  T             U8
   28.7440417938424844    2.2340491486136203    0.0000000000000000    T  T  T             U9
   31.9934336947912108    6.7517003380002141    0.0000000000000000    F  F  F            U10
   35.2484929390711130    4.4434568185712138    0.0000000000000000    F  F  F            U11
   38.4639755625725144    2.1504674513234425    0.0000000000000000    F  F  F            U12
    1.6578126628584047    3.3451644564799832    1.9209516548443859    F  F  F            U13
   22.2513670546581785    3.4188718873577373    1.9209516548443859    T  T  T            U14
   25.4761003541759159    1.1374135364048501    1.9209516548443859    T  T  T            U15
   11.4316379187811989    3.4481560809724767    1.9209516548443859    T  T  T            U16
    4.9068679471479424    5.6407354761538135    1.9209516548443859    F  F  F            U17
   28.7441666239439506    5.6324067724184390    1.9209516548443859    T  T  T            U18
   14.7031888684480130    5.7523244889933052    1.9209516548443859    T  T  T            U19
   31.9921509004597091    3.3539693927653627    1.9209516548443859    F  F  F            U20
    8.1588776667574550    1.1437695281765226    1.9209516548443859    F  F  F            U21
   35.2501791681470493    1.0496466257898514    1.9209516548443859    F  F  F            U22
   17.9295471443259089    1.2434619257003772    1.9209516548443859    T  T  T            U23
   38.4629082948983907    5.5503239991675297    1.9209516548443859    F  F  F            U24
    0.8805448507548409    4.4612486561564015    0.0000000000000000    F  F  F             O1
    2.4946006740863278    2.2232165390275274    0.0000000000000000    F  F  F             O2
    4.1084628809351837    6.7688019730414579    0.0000000000000000    F  F  F             O3
    5.7438818290696156    4.5206824783262709    0.0000000000000000    F  F  F             O4
    7.3638382732402734    2.2700227464753699    0.0000000000000000    F  F  F             O5
    8.9975914456719597    0.0225103294413850    0.0000000000000000    F  F  F             O6
   10.6226899823564089    4.5717566889744123    0.0000000000000000    T  T  T             O7
   12.2662280531316643    2.3269895312306557    0.0000000000000000    T  T  T             O8
   13.8965416040578305    0.0787663407348774    0.0000000000000000    T  T  T             O9
   15.5497101937162707    4.6317053849018857    0.0000000000000000    T  T  T            O10
   17.1135062963339308    2.3877779469108229    0.0000000000000000    T  T  T            O11
   18.7437988288802053    0.1199103574793179    0.0000000000000000    T  T  T            O12
   21.4838208077309822    2.2975249884426261    0.0000000000000000    T  T  T            O13
   23.0939538672966087    4.5696645249633567    0.0000000000000000    T  T  T            O14
   24.6541509918205719    0.0136175804921160    0.0000000000000000    T  T  T            O15
   26.3089153650923535    2.2573276407338669    0.0000000000000000    T  T  T            O16
   27.9388458319773711    4.5074977021703511    0.0000000000000000    T  T  T            O17
   29.5729710411306712    6.7502955256568802    0.0000000000000000    T  T  T            O18
   31.1974151719786299    2.2287562700781134    0.0000000000000000    F  F  F            O19
   32.8285173456122337    4.4750416250658258    0.0000000000000000    F  F  F            O20
   34.4584284164185348    6.7143377595801486    0.0000000000000000    F  F  F            O21
   36.0887179949747789    2.1711602404991939    0.0000000000000000    F  F  F            O22
   37.6625319133666849    4.3984338525742972    0.0000000000000000    F  F  F            O23
   39.2428934610649307    6.6900361516079370    0.0000000000000000    F  F  F            O24
   10.6228149467876278    1.1739883218341929    1.9209516548443859    T  T  T            O25
   21.4828700678163749    5.6956955971854750    1.9209516548443859    T  T  T            O26
   23.0937017139521181    1.1710936126900795    1.9209516548443859    T  T  T            O27
    0.8874655021097594    1.0470285032498499    1.9209516548443859    F  F  F            O28
   24.6542567909727488    3.4117816463945227    1.9209516548443859    T  T  T            O29
   12.2657692463201062    5.7252928461455008    1.9209516548443859    T  T  T            O30
    5.7439645429766051    1.1214962620842817    1.9209516548443859    F  F  F            O31
   26.3089689869844889    5.6555328030883798    1.9209516548443859    T  T  T            O32
   27.9388157317179839    1.1091793765887326    1.9209516548443859    T  T  T            O33
   13.8965656967782234    3.4772178490316898    1.9209516548443859    T  T  T            O34
    7.3658098799399996    5.6677151600823183    1.9209516548443859    F  F  F            O35
   29.5723434583892342    3.3523713590858972    1.9209516548443859    T  T  T            O36
   31.1976331964792557    5.6274882800747772    1.9209516548443859    F  F  F            O37
    4.1097895758634504    3.3673132434264441    1.9209516548443859    F  F  F            O38
   32.8295559747066079    1.0768553807464514    1.9209516548443859    F  F  F            O39
   15.5496905191077950    1.2336421899681163    1.9209516548443859    T  T  T            O40
   34.4529763572775423    3.3261398217717519    1.9209516548443859    F  F  F            O41
   17.1133767729188122    5.7860398208222747    1.9209516548443859    T  T  T            O42
    2.5048781130941595    5.6147458795447802    1.9209516548443859    F  F  F            O43
   36.1159112130990394    5.5591018729039323    1.9209516548443859    F  F  F            O44
   37.6409695215134192    1.0269390323882150    1.9209516548443859    F  F  F            O45
    8.9976992274228902    3.4204018239819134    1.9209516548443859    F  F  F            O46
   18.7439564472782649    3.5181118483695522    1.9209516548443859    T  T  T            O47
   39.2686790335616109    3.2717075472280310    1.9209516548443859    F  F  F            O48
