cif2pos.py                              
   1.00000000000000     
    39.1686756529434632    0.0000000000000000    0.0000000000000000
     0.0000000000000000    6.7963468884617413    0.0000000000000000
     0.0000000000000000    0.0000000000000000    3.8419033096887718
   U    O 
    24    48
Direct
  0.0425725813511393  0.9919898451621272  0.0000000000000000
  0.1252306061327925  0.3301424521855120  0.0000000000000000
  0.2083224142753570  0.6682592209404966  0.0000000000000000
  0.2913339143759566  0.0065537644735124  0.0000000000000000
  0.3744758282804124  0.3455140317445403  0.0000000000000000
  0.4564214112160045  0.6821903246953245  0.0000000000000000
  0.5423716247291770  0.0081190202988809  0.0000000000000000
  0.6251811794274821  0.6702723819137684  0.0000000000000000
  0.7082419713686355  0.3320222755992212  0.0000000000000000
  0.7912811239626877  0.9934308016947582  0.0000000000000000
  0.8743847569045281  0.6538007684856306  0.0000000000000000
  0.9564779747603545  0.3164151987259991  0.0000000000000000
  0.0423249608321616  0.4922003704900846  0.5000000000000000
  0.5423718181231933  0.5081209725620089  0.5000000000000000
  0.6251796040196076  0.1702703796749422  0.5000000000000000
  0.2913383852073713  0.5065341655409511  0.5000000000000000
  0.1252753090409658  0.8299657990868818  0.5000000000000000
  0.7082433128060645  0.8320512440642486  0.5000000000000000
  0.3744740345932412  0.8455172077391104  0.5000000000000000
  0.7912483734468729  0.4934959100541885  0.5000000000000000
  0.2083010857719484  0.1682918113138571  0.5000000000000000
  0.8744278073535861  0.1544427680070111  0.5000000000000000
  0.4564220104709124  0.1821896354518777  0.5000000000000000
  0.9564507267705727  0.8166628470054128  0.5000000000000000
  0.0224808430736124  0.6564186215583432 -0.0000000000000000
  0.0636886653046374  0.3271193444822401 -0.0000000000000000
  0.1048915443896660  0.9959470998357908 -0.0000000000000000
  0.1466447801289878  0.6651635875150960  0.0000000000000000
  0.1880032487819618  0.3340063101148090  0.0000000000000000
  0.2297139562592237  0.0033121219106130  0.0000000000000000
  0.2710359423658147  0.6721288724106134  0.0000000000000000
  0.3126854548872699  0.3415214834286761 -0.0000000000000000
  0.3542151307490437  0.0109661163063900 -0.0000000000000000
  0.3962392730380367  0.6809463739890520 -0.0000000000000000
  0.4357599132971148  0.3502319708317339  0.0000000000000000
  0.4765876507512737  0.0175428963905515 -0.0000000000000000
  0.5225166149753860  0.3450363755887670  0.0000000000000000
  0.5637245888160307  0.6735155541078427 -0.0000000000000000
  0.6048468256224007  0.0045921693007814  0.0000000000000000
  0.6465831416805903  0.3352043885170773  0.0000000000000000
  0.6879533261762388  0.6664713790279599  0.0000000000000000
  0.7296616007503396  0.9968932837254446  0.0000000000000000
  0.7709582892090763  0.3279344487053653 -0.0000000000000000
  0.8126013150822523  0.6584480896146125  0.0000000000000000
  0.8542139313792285  0.9879333515155323 -0.0000000000000000
  0.8958362112081787  0.3194598916346114 -0.0000000000000000
  0.9360166332458484  0.6471761852005509  0.0000000000000000
  0.9763642202232907  0.9843576646986222  0.0000000000000000
  0.2710385430824299  0.1721451129912701  0.5000000000000000
  0.5225160909999910  0.8450353095699756  0.5000000000000000
  0.5637234494733673  0.1735189535934516  0.5000000000000000
  0.0226575314920892  0.1540575430349814  0.5000000000000000
  0.6048477949688981  0.5045814590514515  0.5000000000000000
  0.3126828022208499  0.8415091964633925  0.5000000000000000
  0.1466468918651036  0.1650145703993248  0.5000000000000000
  0.6465817227446615  0.8351980896880419  0.5000000000000000
  0.6879540877756858  0.1664366297254372  0.5000000000000000
  0.3542168553634351  0.5109579513293329  0.5000000000000000
  0.1880535850945114  0.8339355322937478  0.5000000000000000
  0.7296469928218158  0.4969178058053422  0.5000000000000000
  0.7709638555065558  0.8280166348819881  0.5000000000000000
  0.1049254157142907  0.4954592958083357  0.5000000000000000
  0.8126278319117672  0.1584462062368586  0.5000000000000000
  0.3962408446951118  0.1809414782725164  0.5000000000000000
  0.8540747370089703  0.4894011262754361  0.5000000000000000
  0.4357592801152138  0.8502309913446828  0.5000000000000000
  0.0639510545439117  0.8261417452186003  0.5000000000000000
  0.8965304705281762  0.8179544046437227  0.5000000000000000
  0.9354661323291411  0.1511016210976015  0.5000000000000000
  0.2297167079925755  0.5032706364339302  0.5000000000000000
  0.4765868636365722  0.5175428511396648  0.5000000000000000
  0.9770225414983084  0.4813920773794579  0.5000000000000000
 
  0.00000000E+00  0.00000000E+00  0.00000000E+00
  0.00000000E+00  0.00000000E+00  0.00000000E+00
  0.00000000E+00  0.00000000E+00  0.00000000E+00
  0.00000000E+00  0.00000000E+00  0.00000000E+00
  0.00000000E+00  0.00000000E+00  0.00000000E+00
  0.00000000E+00  0.00000000E+00  0.00000000E+00
  0.00000000E+00  0.00000000E+00  0.00000000E+00
  0.00000000E+00  0.00000000E+00  0.00000000E+00
  0.00000000E+00  0.00000000E+00  0.00000000E+00
  0.00000000E+00  0.00000000E+00  0.00000000E+00
  0.00000000E+00  0.00000000E+00  0.00000000E+00
  0.00000000E+00  0.00000000E+00  0.00000000E+00
  0.00000000E+00  0.00000000E+00  0.00000000E+00
  0.00000000E+00  0.00000000E+00  0.00000000E+00
  0.00000000E+00  0.00000000E+00  0.00000000E+00
  0.00000000E+00  0.00000000E+00  0.00000000E+00
  0.00000000E+00  0.00000000E+00  0.00000000E+00
  0.00000000E+00  0.00000000E+00  0.00000000E+00
  0.00000000E+00  0.00000000E+00  0.00000000E+00
  0.00000000E+00  0.00000000E+00  0.00000000E+00
  0.00000000E+00  0.00000000E+00  0.00000000E+00
  0.00000000E+00  0.00000000E+00  0.00000000E+00
  0.00000000E+00  0.00000000E+00  0.00000000E+00
  0.00000000E+00  0.00000000E+00  0.00000000E+00
  0.00000000E+00  0.00000000E+00  0.00000000E+00
  0.00000000E+00  0.00000000E+00  0.00000000E+00
  0.00000000E+00  0.00000000E+00  0.00000000E+00
  0.00000000E+00  0.00000000E+00  0.00000000E+00
  0.00000000E+00  0.00000000E+00  0.00000000E+00
  0.00000000E+00  0.00000000E+00  0.00000000E+00
  0.00000000E+00  0.00000000E+00  0.00000000E+00
  0.00000000E+00  0.00000000E+00  0.00000000E+00
  0.00000000E+00  0.00000000E+00  0.00000000E+00
  0.00000000E+00  0.00000000E+00  0.00000000E+00
  0.00000000E+00  0.00000000E+00  0.00000000E+00
  0.00000000E+00  0.00000000E+00  0.00000000E+00
  0.00000000E+00  0.00000000E+00  0.00000000E+00
  0.00000000E+00  0.00000000E+00  0.00000000E+00
  0.00000000E+00  0.00000000E+00  0.00000000E+00
  0.00000000E+00  0.00000000E+00  0.00000000E+00
  0.00000000E+00  0.00000000E+00  0.00000000E+00
  0.00000000E+00  0.00000000E+00  0.00000000E+00
  0.00000000E+00  0.00000000E+00  0.00000000E+00
  0.00000000E+00  0.00000000E+00  0.00000000E+00
  0.00000000E+00  0.00000000E+00  0.00000000E+00
  0.00000000E+00  0.00000000E+00  0.00000000E+00
  0.00000000E+00  0.00000000E+00  0.00000000E+00
  0.00000000E+00  0.00000000E+00  0.00000000E+00
  0.00000000E+00  0.00000000E+00  0.00000000E+00
  0.00000000E+00  0.00000000E+00  0.00000000E+00
  0.00000000E+00  0.00000000E+00  0.00000000E+00
  0.00000000E+00  0.00000000E+00  0.00000000E+00
  0.00000000E+00  0.00000000E+00  0.00000000E+00
  0.00000000E+00  0.00000000E+00  0.00000000E+00
  0.00000000E+00  0.00000000E+00  0.00000000E+00
  0.00000000E+00  0.00000000E+00  0.00000000E+00
  0.00000000E+00  0.00000000E+00  0.00000000E+00
  0.00000000E+00  0.00000000E+00  0.00000000E+00
  0.00000000E+00  0.00000000E+00  0.00000000E+00
  0.00000000E+00  0.00000000E+00  0.00000000E+00
  0.00000000E+00  0.00000000E+00  0.00000000E+00
  0.00000000E+00  0.00000000E+00  0.00000000E+00
  0.00000000E+00  0.00000000E+00  0.00000000E+00
  0.00000000E+00  0.00000000E+00  0.00000000E+00
  0.00000000E+00  0.00000000E+00  0.00000000E+00
  0.00000000E+00  0.00000000E+00  0.00000000E+00
  0.00000000E+00  0.00000000E+00  0.00000000E+00
  0.00000000E+00  0.00000000E+00  0.00000000E+00
  0.00000000E+00  0.00000000E+00  0.00000000E+00
  0.00000000E+00  0.00000000E+00  0.00000000E+00
  0.00000000E+00  0.00000000E+00  0.00000000E+00
  0.00000000E+00  0.00000000E+00  0.00000000E+00
