cif2pos.py
   1.000
   43.1686756529434632    0.0000000000000000    0.0000000000000000
    0.0000000000000000    6.7963468884617413    0.0000000000000000
    0.0000000000000000    0.0000000000000000    3.8419033096887718
   U    Zr   O 
   23    1   48
Selective Dynamics
Cartesian
    1.6766700050640642    6.7396662903317681    0.0000000000000000    F  F  F             U1
    4.9254246181262689    2.2348990207365427    0.0000000000000000    F  F  F             U2
    8.1954796056989192    4.5249702400376215    0.0000000000000000    F  F  F             U3
   11.4466579019115393    0.0172665868098401    0.0000000000000000    T  T  T             U4
   14.6973359960375802    2.3145423518873480    0.0000000000000000    T  T  T             U5
   17.8978012968839622    4.5972570346770425    0.0000000000000000    T  T  T             U6
   28.4321512261845157    4.5742108141391125    0.0000000000000000    T  T  T             U7
   31.6881158395117950    2.2978729610247237    0.0000000000000000    T  T  T             U8
   34.9389834758971105    0.0034115683682511    0.0000000000000000    F  F  F             U9
   38.2055693486621877    4.4759683331192059    0.0000000000000000    F  F  F            U10
   41.4351780227624360    2.1731554355732974    0.0000000000000000    F  F  F            U11
    1.6657649129754728    3.3430012386500936    1.9209516548443859    F  F  F            U12
   25.3013497130366112    3.3427216135155260    1.9209516548443859    T  T  T            U13
   28.4560676950907201    1.1758170755266124    1.9209516548443859    T  T  T            U14
   11.4555200132897284    3.4210290316076724    1.9209516548443859    T  T  T            U15
    4.9277997248357392    5.6314053602819145    1.9209516548443859    F  F  F            U16
   31.6921232233090677    5.6925792673280977    1.9209516548443859    T  T  T            U17
   14.6978130234533229    5.7141009909302767    1.9209516548443859    T  T  T            U18
   34.9317212451582009    3.4032240753680552    1.9209516548443859    F  F  F            U19
    8.1918134701031047    1.1284783790481530    1.9209516548443859    F  F  F            U20
   38.2082527450310465    1.0830085474584679    1.9209516548443859    F  F  F            U21
   17.8931401437962485    1.1933447404836863    1.9209516548443859    T  T  T            U22
   41.4323466514632557    5.5732689589789794    1.9209516548443859    F  F  F            U23
   25.4092316301247862    0.0455973480707667    0.0000000000000000    T  T  T            Zr1
    0.8873101287153378    4.4585732608847319    0.0000000000000000    F  F  F             O1
    2.5072024030545546    2.2190857681958684    0.0000000000000000    F  F  F             O2
    4.1225649785648235    6.7607650334689913    0.0000000000000000    F  F  F             O3
    5.7681558352431077    4.5100793177868290    0.0000000000000000    F  F  F             O4
    7.3920740981839224    2.2537636686038702    0.0000000000000000    F  F  F             O5
    9.0341565657244480    0.0054397827352461    0.0000000000000000    F  F  F             O6
   10.6396792585457405    4.5382964464636277    0.0000000000000000    T  T  T             O7
   12.2917901860863612    2.2980066544472728    0.0000000000000000    T  T  T             O8
   13.8839566712067501    0.0357130586611616    0.0000000000000000    T  T  T             O9
   15.5411792789557381    4.6007937812500792    0.0000000000000000    T  T  T            O10
   17.0622442058826707    2.3397869593908496    0.0000000000000000    T  T  T            O11
   18.6934265680690856    0.0912900630105533    0.0000000000000000    T  T  T            O12
   24.5897441408103852    2.0652492179902127    0.0000000000000000    T  T  T            O13
   25.9931052254338297    4.5027522911347750    0.0000000000000000    T  T  T            O14
   27.5331398984195737    6.7690795674801407    0.0000000000000000    T  T  T            O15
   29.2620392329375427    2.2889958296831581    0.0000000000000000    T  T  T            O16
   30.8645940148346263    4.5529934971550494    0.0000000000000000    T  T  T            O17
   32.5225458920672850    0.0283566877860420    0.0000000000000000    T  T  T            O18
   34.1275748888555839    2.2785640214872336    0.0000000000000000    F  F  F            O19
   35.7742631047484139    4.5183174212123776    0.0000000000000000    F  F  F            O20
   37.4088366584368828    6.7489754272900768    0.0000000000000000    F  F  F            O21
   39.0481875355079779    2.2006170557563149    0.0000000000000000    F  F  F            O22
   40.6283670196089375    4.4204335233578620    0.0000000000000000    F  F  F            O23
   42.2194738160883887    6.7074025574918572    0.0000000000000000    F  F  F            O24
   10.6387703893203600    1.1468268442001190    1.9209516548443859    T  T  T            O25
   24.7433083364902835    5.9873167071076727    1.9209516548443859    T  T  T            O26
   26.2349159049801841    1.2635005544844418    1.9209516548443859    T  T  T            O27
    0.8939682245926702    1.0449996631738878    1.9209516548443859    F  F  F            O28
   27.6627473449349353    3.4780494804956494    1.9209516548443859    T  T  T            O29
   12.2582042865183958    5.6875845087353971    1.9209516548443859    T  T  T            O30
    5.7668189960798157    1.1101394718850419    1.9209516548443859    F  F  F            O31
   29.2682079623298002    5.7249185708894599    1.9209516548443859    T  T  T            O32
   30.9017278270678091    1.1683064237395724    1.9209516548443859    T  T  T            O33
   13.9022117113469594    3.4546308833169888    1.9209516548443859    T  T  T            O34
    7.3943885640651992    5.6520255867703071    1.9209516548443859    F  F  F            O35
   32.5049139186274445    3.4335074491533271    1.9209516548443859    T  T  T            O36
   34.1410167909343585    5.6839026050947288    1.9209516548443859    F  F  F            O37
    4.1240815052169282    3.3604164289257441    1.9209516548443859    F  F  F            O38
   35.7767924934715751    1.1239647602693137    1.9209516548443859    F  F  F            O39
   15.5282790672566033    1.1751694289715846    1.9209516548443859    T  T  T            O40
   37.4055444924799332    3.3624226908378629    1.9209516548443859    F  F  F            O41
   17.0972252374316014    5.7369185589433345    1.9209516548443859    T  T  T            O42
    2.5148612764097362    5.6110101717412872    1.9209516548443859    F  F  F            O43
   39.0742155752047609    5.5919984004660526    1.9209516548443859    F  F  F            O44
   40.6069428672693320    1.0499367318135790    1.9209516548443859    F  F  F            O45
    9.0341955664875133    3.4028848170673669    1.9209516548443859    F  F  F            O46
   18.6919369285267507    3.4764090209523499    1.9209516548443859    T  T  T            O47
   42.2469244847763790    3.2882416522030233    1.9209516548443859    F  F  F            O48
