cif2pos.py
   1.000
   42.6686756529434632    0.0000000000000000    0.0000000000000000
    0.0000000000000000    6.7963468884617413    0.0000000000000000
    0.0000000000000000    0.0000000000000000    3.8419033096887718
   U    Zr   O 
   23    1   48
Selective Dynamics
Cartesian
    1.6766700050639864    6.7396662903317672    0.0000000000000000    F  F  F             U1
    4.9254246181261943    2.2348990207365427    0.0000000000000000    F  F  F             U2
    8.1954796056988606    4.5249702400376215    0.0000000000000000    F  F  F             U3
   11.4555308375831117    0.0229195668663581    0.0000000000000000    T  T  T             U4
   14.7415765757504005    2.2843614636434895    0.0000000000000000    T  T  T             U5
   17.9025731016489651    4.5762696578843229    0.0000000000000000    T  T  T             U6
   27.9076163737362783    4.6014693373944757    0.0000000000000000    T  T  T             U7
   31.1658323584187684    2.3090233788745063    0.0000000000000000    T  T  T             U8
   34.4389834758972384    0.0034115683682511    0.0000000000000000    F  F  F             U9
   37.7055693486620456    4.4759683331192059    0.0000000000000000    F  F  F            U10
   40.9351780227625497    2.1731554355732974    0.0000000000000000    F  F  F            U11
    1.6657649129755325    3.3430012386500936    1.9209516548443859    F  F  F            U12
   24.7367540491697007    3.3799763659147763    1.9209516548443859    T  T  T            U13
   27.9160699493269462    1.1947408832905058    1.9209516548443859    T  T  T            U14
   11.4674818536541903    3.4179167857595645    1.9209516548443859    T  T  T            U15
    4.9277997248358245    5.6314053602819145    1.9209516548443859    F  F  F            U16
   31.1733149426711726    5.7088024319955695    1.9209516548443859    T  T  T            U17
   14.7184516069597802    5.6961821085119517    1.9209516548443859    T  T  T            U18
   34.4317212451583430    3.4032240753680552    1.9209516548443859    F  F  F            U19
    8.1918134701030851    1.1284783790481530    1.9209516548443859    F  F  F            U20
   37.7082527450310749    1.0830085474584679    1.9209516548443859    F  F  F            U21
   18.0286204632678526    1.1284338967863001    1.9209516548443859    T  T  T            U22
   40.9323466514632273    5.5732689589789794    1.9209516548443859    F  F  F            U23
   24.8145463075452675    0.0710262724804331    0.0000000000000000    T  T  T            Zr1
    0.8873101287153791    4.4585732608847319    0.0000000000000000    F  F  F             O1
    2.5072024030544089    2.2190857681958684    0.0000000000000000    F  F  F             O2
    4.1225649785647009    6.7607650334689913    0.0000000000000000    F  F  F             O3
    5.7681558352429976    4.5100793177868290    0.0000000000000000    F  F  F             O4
    7.3920740981837980    2.2537636686038702    0.0000000000000000    F  F  F             O5
    9.0341565657243414    0.0054397827352461    0.0000000000000000    F  F  F             O6
   10.6624272466341594    4.5463242590343009    0.0000000000000000    T  T  T             O7
   12.3054742272025912    2.2938313536486299    0.0000000000000000    T  T  T             O8
   13.9398122652059744    0.0395530329008895    0.0000000000000000    T  T  T             O9
   15.5442142962863770    4.5505273423557373    0.0000000000000000    T  T  T            O10
   17.1930916652011163    2.3048985373531568    0.0000000000000000    T  T  T            O11
   18.6932048626347580    6.7438478937451611    0.0000000000000000    T  T  T            O12
   23.9644939815296070    2.0412288728658363    0.0000000000000000    T  T  T            O13
   25.4068794866133452    4.5156747098695220    0.0000000000000000    T  T  T            O14
   26.9824946255375053    6.7755626093483245    0.0000000000000000    T  T  T            O15
   28.7509352266176315    2.2913273332006883    0.0000000000000000    T  T  T            O16
   30.3568633564010675    4.5758551547515278    0.0000000000000000    T  T  T            O17
   32.0029318419487723    0.0269746555074366    0.0000000000000000    T  T  T            O18
   33.6275748888555768    2.2785640214872336    0.0000000000000000    F  F  F            O19
   35.2742631047485631    4.5183174212123776    0.0000000000000000    F  F  F            O20
   36.9088366584367691    6.7489754272900768    0.0000000000000000    F  F  F            O21
   38.5481875355081129    2.2006170557563149    0.0000000000000000    F  F  F            O22
   40.1283670196090370    4.4204335233578620    0.0000000000000000    F  F  F            O23
   41.7194738160884526    6.7074025574918572    0.0000000000000000    F  F  F            O24
   10.6576204292587811    1.1493494591204647    1.9209516548443859    T  T  T            O25
   24.1602502208312906    6.0564386725455037    1.9209516548443859    T  T  T            O26
   25.6798743588855167    1.2996012595410031    1.9209516548443859    T  T  T            O27
    0.8939682245925715    1.0449996631738878    1.9209516548443859    F  F  F            O28
   27.1791018293755258    3.5014936531999470    1.9209516548443859    T  T  T            O29
   12.2952050091394458    5.6991794208459172    1.9209516548443859    T  T  T            O30
    5.7668189960799427    1.1101394718850419    1.9209516548443859    F  F  F            O31
   28.7503814605211865    5.7674511215818729    1.9209516548443859    T  T  T            O32
   30.3819840515337489    1.1815619540323341    1.9209516548443859    T  T  T            O33
   13.9215633598604072    3.4265837568469526    1.9209516548443859    T  T  T            O34
    7.3943885640651308    5.6520255867703071    1.9209516548443859    F  F  F            O35
   32.0204840814914178    3.4547242580180919    1.9209516548443859    T  T  T            O36
   33.6410167909343372    5.6839026050947288    1.9209516548443859    F  F  F            O37
    4.1240815052168625    3.3604164289257441    1.9209516548443859    F  F  F            O38
   35.2767924934715751    1.1239647602693137    1.9209516548443859    F  F  F            O39
   15.6293282510621889    1.1610021221320013    1.9209516548443859    T  T  T            O40
   36.9055444924798906    3.3624226908378625    1.9209516548443859    F  F  F            O41
   17.1011079680484528    5.6807412191716242    1.9209516548443859    T  T  T            O42
    2.5148612764095919    5.6110101717412872    1.9209516548443859    F  F  F            O43
   38.5742155752048888    5.5919984004660526    1.9209516548443859    F  F  F            O44
   40.1069428672693746    1.0499367318135790    1.9209516548443859    F  F  F            O45
    9.0341955664875737    3.4028848170673669    1.9209516548443859    F  F  F            O46
   18.8316226383174197    3.5151343609684731    1.9209516548443859    T  T  T            O47
   41.7469244847764003    3.2882416522030233    1.9209516548443859    F  F  F            O48
