cif2pos.py
   1.000
   39.6686756529434632    0.0000000000000000    0.0000000000000000
    0.0000000000000000    6.7963468884617413    0.0000000000000000
    0.0000000000000000    0.0000000000000000    3.8419033096887718
   U    O 
   24   48
Selective Dynamics
Cartesian
    1.6675116306511479    6.7419070975532431    0.0000000000000000    F  F  F             U1
    4.9051169934370078    2.2437626276601375    0.0000000000000000    F  F  F             U2
    8.1597130759896412    4.5417214769248258    0.0000000000000000    F  F  F             U3
   11.4585184775060149    0.0480908264884749    0.0000000000000000    T  T  T             U4
   14.7653092609098167    2.3561436515796816    0.0000000000000000    T  T  T             U5
   18.0308923072691663    4.6500892795334297    0.0000000000000000    T  T  T             U6
   21.6053497363636104    0.0433372110243359    0.0000000000000000    T  T  T             U7
   24.8954205835986215    4.5497694433584668    0.0000000000000000    T  T  T             U8
   28.1982077367495485    2.2618770208766112    0.0000000000000000    T  T  T             U9
   31.4934336947910936    6.7517003380002141    0.0000000000000000    F  F  F            U10
   34.7484929390712978    4.4434568185712138    0.0000000000000000    F  F  F            U11
   37.9639755625724362    2.1504674513234425    0.0000000000000000    F  F  F            U12
    1.6578126628584544    3.3451644564799832    1.9209516548443859    F  F  F            U13
   21.6230828566355520    3.4419190000888684    1.9209516548443859    T  T  T            U14
   24.8945538118855474    1.1513791574421532    1.9209516548443859    T  T  T            U15
   11.4586906479374377    3.4463552840326357    1.9209516548443859    T  T  T            U16
    4.9068679471479131    5.6407354761538144    1.9209516548443859    F  F  F            U17
   28.1874299356830029    5.6606539450441122    1.9209516548443859    T  T  T            U18
   14.7660941525790115    5.7545175577802841    1.9209516548443859    T  T  T            U19
   31.4921509004598086    3.3539693927653627    1.9209516548443859    F  F  F            U20
    8.1588776667573573    1.1437695281765226    1.9209516548443859    F  F  F            U21
   34.7501791681471630    1.0496466257898514    1.9209516548443859    F  F  F            U22
   18.0291718029628036    1.2534650935360478    1.9209516548443859    T  T  T            U23
   37.9629082948983552    5.5503239991675297    1.9209516548443859    F  F  F            U24
    0.8805448507549648    4.4612486561564015    0.0000000000000000    F  F  F             O1
    2.4946006740861897    2.2232165390275274    0.0000000000000000    F  F  F             O2
    4.1084628809350532    6.7688019730414579    0.0000000000000000    F  F  F             O3
    5.7438818290695588    4.5206824783262709    0.0000000000000000    F  F  F             O4
    7.3638382732402636    2.2700227464753699    0.0000000000000000    F  F  F             O5
    8.9975914456721426    0.0225103294413850    0.0000000000000000    F  F  F             O6
   10.6545817644777276    4.5698455317322724    0.0000000000000000    T  T  T             O7
   12.3132775962437986    2.3272922251699861    0.0000000000000000    T  T  T             O8
   13.9586321822508417    0.0807551732842377    0.0000000000000000    T  T  T             O9
   15.6326918758606297    4.6363976816177983    0.0000000000000000    T  T  T            O10
   17.2064112165670586    2.3864850182138140    0.0000000000000000    T  T  T            O11
   18.8700602990217234    0.1116251420785836    0.0000000000000000    T  T  T            O12
   20.8483190259910955    2.3358142948193792    0.0000000000000000    T  T  T            O13
   22.4802602390200086    4.5708414442452696    0.0000000000000000    T  T  T            O14
   24.0943060362958903    0.0108837522342101    0.0000000000000000    T  T  T            O15
   25.7356319204040531    2.2929804009934611    0.0000000000000000    T  T  T            O16
   27.3759316154437364    4.5302568570780730    0.0000000000000000    T  T  T            O17
   29.0418999454301279    6.7768939549569263    0.0000000000000000    T  T  T            O18
   30.6974151719783670    2.2287562700781134    0.0000000000000000    F  F  F            O19
   32.3285173456120560    4.4750416250658258    0.0000000000000000    F  F  F            O20
   33.9584284164187693    6.7143377595801486    0.0000000000000000    F  F  F            O21
   35.5887179949749637    2.1711602404991939    0.0000000000000000    F  F  F            O22
   37.1625319133667418    4.3984338525742972    0.0000000000000000    F  F  F            O23
   38.7428934610651865    6.6900361516079370    0.0000000000000000    F  F  F            O24
   10.6546354562846055    1.1718723101593476    1.9209516548443859    T  T  T            O25
   20.8376454872218879    5.7232802815593775    1.9209516548443859    T  T  T            O26
   22.4632144389959372    1.1538279374937896    1.9209516548443859    T  T  T            O27
    0.8874655021097878    1.0470285032498499    1.9209516548443859    F  F  F            O28
   24.0619358728398680    3.4036923516104700    1.9209516548443859    T  T  T            O29
   12.3128801928016962    5.7255523434468882    1.9209516548443859    T  T  T            O30
    5.7439645429766175    1.1214962620842817    1.9209516548443859    F  F  F            O31
   25.7691449497208751    5.6926706226220505    1.9209516548443859    T  T  T            O32
   27.3899997926439234    1.1453837067949157    1.9209516548443859    T  T  T            O33
   13.9590742082517529    3.4809246150008466    1.9209516548443859    T  T  T            O34
    7.3658098799398495    5.6677151600823183    1.9209516548443859    F  F  F            O35
   29.0465834725349090    3.3826001697119632    1.9209516548443859    T  T  T            O36
   30.6976331964791562    5.6274882800747772    1.9209516548443859    F  F  F            O37
    4.1097895758632204    3.3673132434264441    1.9209516548443859    F  F  F            O38
   32.3295559747066505    1.0768553807464514    1.9209516548443859    F  F  F            O39
   15.6283845115977211    1.2386623874822233    1.9209516548443859    T  T  T            O40
   33.9529763572774428    3.3261398217717519    1.9209516548443859    F  F  F            O41
   17.2094372491914953    5.7893832331226340    1.9209516548443859    T  T  T            O42
    2.5048781130942817    5.6147458795447811    1.9209516548443859    F  F  F            O43
   35.6159112130990749    5.5591018729039323    1.9209516548443859    F  F  F            O44
   37.1409695215136750    1.0269390323882150    1.9209516548443859    F  F  F            O45
    8.9976992274228778    3.4204018239819134    1.9209516548443859    F  F  F            O46
   18.8560052632505055    3.5066660241277785    1.9209516548443859    T  T  T            O47
   38.7686790335617815    3.2717075472280315    1.9209516548443859    F  F  F            O48
