cif2pos.py
   1.000
   43.3378009073876669    0.0000000000000000    0.0000000000000000
    0.0000000000000000   13.1421435162302842    0.0000000000000000
    0.0000000000000000    0.0000000000000000    3.8761186333578821
   U    La   O 
   43    1   88
Selective Dynamics
Cartesian
    0.0000000000000000   12.5353308799855050    0.0000000000000000    F  F  F             U1
    5.4641934286519618   10.7680793814899065    0.0000000000000000    F  F  F             U2
   10.4051441622621699    8.3658451522015334    0.0000000000000000    T  T  T             U3
   15.5417007528353714    5.9509473653197009    0.0000000000000000    T  T  T             U4
    2.2604733597658653    3.5831580874270701    0.0000000000000000    F  F  F             U5
   16.8971728847054550    9.5521686069440666    0.0000000000000000    T  T  T             U6
    3.6131385825797944    7.1702576706677803    0.0000000000000000    F  F  F             U7
    8.7650676363483182    4.7879040023082657    0.0000000000000000    F  F  F             U8
   13.6741206887730478    2.3723796656968141    0.0000000000000000    T  T  T             U9
    7.0455068051722431    1.1842577625595996    0.0000000000000000    F  F  F            U10
   12.1161915183271880   11.9425140691429235    0.0000000000000000    T  T  T            U11
    2.2617022742936794   10.1491696584137898    1.9380593166789410    F  F  F            U12
    7.0580235349395473    7.7780596048043167    1.9380593166789410    F  F  F            U13
   12.1173124676616126    5.3888861922294184    1.9380593166789410    T  T  T            U14
   16.8914927866207556    2.9628973144530821    1.9380593166789410    T  T  T            U15
    3.6066429184644782    0.5962839696534746    1.9380593166789410    F  F  F            U16
   24.1689004536938299    7.1601231955065083    1.9380593166789410    T  T  T            U17
    5.4639747244954080    4.1904866912189283    1.9380593166789410    F  F  F            U18
   10.3856677007236176    1.7832429932088165    1.9380593166789410    T  T  T            U19
   15.5659291106798676   12.5599501680355878    1.9380593166789410    T  T  T            U20
    8.7679720945392319   11.3479630037670418    1.9380593166789410    F  F  F            U21
   13.7030019346647833    8.9501844283942749    1.9380593166789410    T  T  T            U22
   29.6636802186148998    2.3723796656968141    0.0000000000000000    T  T  T            U23
   34.5727332710385369    4.7879040023082657    0.0000000000000000    F  F  F            U24
   39.7246623248084134    7.1702576706677803    0.0000000000000000    F  F  F            U25
   26.4406280226827626    9.5521686069440666    0.0000000000000000    T  T  T            U26
   41.0773275476207047    3.5831580874270701    0.0000000000000000    F  F  F            U27
   27.7961001545528461    5.9509473653197009    0.0000000000000000    T  T  T            U28
   32.9326567451249446    8.3658451522015334    0.0000000000000000    T  T  T            U29
   37.8736074787357211   10.7680793814899065    0.0000000000000000    F  F  F            U30
   31.2216093890602089   11.9425140691429235    0.0000000000000000    T  T  T            U31
   36.2922941022159762    1.1842577625595996    0.0000000000000000    F  F  F            U32
   26.4463081207671813    2.9628973144530821    1.9380593166789410    T  T  T            U33
   31.2204884397268678    5.3888861922294184    1.9380593166789410    T  T  T            U34
   36.2797773724475832    7.7780596048043167    1.9380593166789410    F  F  F            U35
   41.0760986330931743   10.1491696584137898    1.9380593166789410    F  F  F            U36
   27.7718717967080835   12.5599501680355878    1.9380593166789410    T  T  T            U37
    0.0000000000000000    5.9667500804452756    1.9380593166789410    F  F  F            U38
   29.6347989727234342    8.9501844283942749    1.9380593166789410    T  T  T            U39
   34.5698288128481650   11.3479630037670418    1.9380593166789410    F  F  F            U40
   39.7311579889237265    0.5962839696534746    1.9380593166789410    F  F  F            U41
   32.9521332066643140    1.7832429932088165    1.9380593166789410    T  T  T            U42
   37.8738261828928060    4.1904866912189283    1.9380593166789410    F  F  F            U43
   24.1689004536938299    0.5766608778963614    0.0000000000000000    T  T  T            La1
    3.5312710190864496    9.4963666581296842    0.0000000000000000    F  F  F             O1
    8.3432713868073254    7.1712777135405954    0.0000000000000000    F  F  F             O2
   13.2966556717880184    4.8177445388422262    0.0000000000000000    T  T  T             O3
   17.9466295800292350    2.6674313206979710    0.0000000000000000    T  T  T             O4
    4.8863867433859625    0.0035607944122055    0.0000000000000000    F  F  F             O5
    1.3882155113005386    5.9444834165683140    0.0000000000000000    F  F  F             O6
    6.6846133375784724    3.5822991922354483    0.0000000000000000    F  F  F             O7
   11.6690038957766955    1.1848808997448808    0.0000000000000000    T  T  T             O8
   16.8349300743820258   11.8491059088252122    0.0000000000000000    T  T  T             O9
   10.0165036809663146   10.7304918808175742    0.0000000000000000    T  T  T            O10
   15.0267978865498648    8.3009870435346453    0.0000000000000000    T  T  T            O11
    4.1337918643753797   11.3837347793087940    1.9380593166789410    F  F  F            O12
    9.1634749845945453    8.9714394089216505    1.9380593166789410    F  F  F            O13
   14.2919016405435357    6.5315054644169832    1.9380593166789410    T  T  T            O14
    1.2188358591637825    4.0495768400859253    1.9380593166789410    F  F  F            O15
    5.8646599627355602    1.7657604171672714    1.9380593166789410    F  F  F            O16
    2.3534291758529005    7.8316946444925915    1.9380593166789410    F  F  F            O17
    7.4797081734067303    5.3864411326233181    1.9380593166789410    F  F  F            O18
   12.4699131305631177    2.9956470420373162    1.9380593166789410    T  T  T            O19
   17.5993656340642595    0.7490043772821001    1.9380593166789410    T  T  T            O20
   10.8121138599334934   12.5529925285109218    1.9380593166789410    T  T  T            O21
   15.6259774199480557   10.2074712012283797    1.9380593166789410    T  T  T            O22
    1.3903564121536076   12.5163527852034608    1.9380593166789410    F  F  F            O23
    6.6808687105494213   10.1739990229064912    1.9380593166789410    F  F  F            O24
   11.7013770669524604    7.7659300766711770    1.9380593166789410    T  T  T            O25
   16.7910838940433571    5.2301488811048849    1.9380593166789410    T  T  T            O26
    3.5375703019719351    2.9287846629810668    1.9380593166789410    F  F  F            O27
   17.9440079317229539    9.0634353370176619    1.9380593166789410    T  T  T            O28
    4.8979952136512903    6.5874272269786456    1.9380593166789410    F  F  F            O29
    9.9868402188869130    4.1917640158294027    1.9380593166789410    T  T  T            O30
   14.9669066359292007    1.7763867607718737    1.9380593166789410    T  T  T            O31
    8.3232185942056525    0.5707985208000855    1.9380593166789410    F  F  F            O32
   13.2741618737705984   11.3773907400113430    1.9380593166789410    T  T  T            O33
    1.2181303659718312   10.6221332740851384    0.0000000000000000    F  F  F            O34
    5.8772620913400342    8.3590460039746475    0.0000000000000000    F  F  F            O35
   10.8328580281272426    6.0071287230875958    0.0000000000000000    T  T  T            O36
   15.6189427672871215    3.5935471034732545    0.0000000000000000    T  T  T            O37
    2.3532512270952184    1.2661331151481912    0.0000000000000000    F  F  F            O38
   17.7725913516665699    7.1557340735747195    0.0000000000000000    T  T  T            O39
    4.1312771706089189    4.8203878383101184    0.0000000000000000    F  F  F            O40
    9.1664503230919312    2.3833321917989880    0.0000000000000000    F  F  F            O41
   14.2843125014203416   13.1159586069240799    0.0000000000000000    T  T  T            O42
    7.4817150240460339   11.9502003243219477    0.0000000000000000    F  F  F            O43
   12.5072958850269220    9.5436843113202592    0.0000000000000000    T  T  T            O44
   27.7188581401016485    3.5935471034732545    0.0000000000000000    T  T  T            O45
   32.5049428792615203    6.0071287230875958    0.0000000000000000    T  T  T            O46
   37.4605388160476309    8.3590460039746475    0.0000000000000000    F  F  F            O47
   42.1196705414161130   10.6221332740851384    0.0000000000000000    F  F  F            O48
   29.0534884059667782   13.1159586069240799    0.0000000000000000    T  T  T            O49
   25.5652095557197399    7.1557340735747195    0.0000000000000000    T  T  T            O50
   30.8305050223604766    9.5436843113202592    0.0000000000000000    T  T  T            O51
   35.8560858833418976   11.9502003243219477    0.0000000000000000    F  F  F            O52
   40.9845496802924529    1.2661331151481912    0.0000000000000000    F  F  F            O53
   34.1713505842954675    2.3833321917989880    0.0000000000000000    F  F  F            O54
   39.2065237367792889    4.8203878383101184    0.0000000000000000    F  F  F            O55
   28.3708942714573702    1.7763867607718737    1.9380593166789410    T  T  T            O56
   33.3509606885002228    4.1917640158294027    1.9380593166789410    T  T  T            O57
   38.4398056937369219    6.5874272269786456    1.9380593166789410    F  F  F            O58
   25.3937929756644287    9.0634353370176619    1.9380593166789410    T  T  T            O59
   30.0636390336165213   11.3773907400113430    1.9380593166789410    T  T  T            O60
   26.5467170133448640    5.2301488811048849    1.9380593166789410    T  T  T            O61
   31.6364238404338458    7.7659300766711770    1.9380593166789410    T  T  T            O62
   36.6569321968377011   10.1739990229064912    1.9380593166789410    F  F  F            O63
   41.9474444952332348   12.5163527852034608    1.9380593166789410    F  F  F            O64
   35.0145823131822880    0.5707985208000855    1.9380593166789410    F  F  F            O65
   39.8002306054165587    2.9287846629810668    1.9380593166789410    F  F  F            O66
   25.7384352733242245    0.7490043772821001    1.9380593166789410    T  T  T            O67
   30.8678877768250821    2.9956470420373162    1.9380593166789410    T  T  T            O68
   35.8580927339814863    5.3864411326233181    1.9380593166789410    F  F  F            O69
   40.9843717315339475    7.8316946444925915    1.9380593166789410    F  F  F            O70
   27.7118234874396023   10.2074712012283797    1.9380593166789410    T  T  T            O71
   42.1189650482236146    4.0495768400859253    1.9380593166789410    F  F  F            O72
   29.0458992668438505    6.5315054644169832    1.9380593166789410    T  T  T            O73
   34.1743259227934075    8.9714394089216505    1.9380593166789410    F  F  F            O74
   39.2040090430131016   11.3837347793087940    1.9380593166789410    F  F  F            O75
   32.5256870474544542   12.5529925285109218    1.9380593166789410    T  T  T            O76
   37.4731409446521155    1.7657604171672714    1.9380593166789410    F  F  F            O77
   25.3911713273581512    2.6674313206979710    0.0000000000000000    T  T  T            O78
   30.0411452355985560    4.8177445388422262    0.0000000000000000    T  T  T            O79
   34.9945295205797962    7.1712777135405954    0.0000000000000000    F  F  F            O80
   39.8065298883009433    9.4963666581296842    0.0000000000000000    F  F  F            O81
   26.5028708330056411   11.8491059088252122    0.0000000000000000    T  T  T            O82
   41.9495853960871301    5.9444834165683140    0.0000000000000000    F  F  F            O83
   28.3110030208386156    8.3009870435346453    0.0000000000000000    T  T  T            O84
   33.3212972264213576   10.7304918808175742    0.0000000000000000    T  T  T            O85
   38.4514141640008944    0.0035607944122055    0.0000000000000000    F  F  F            O86
   31.6687970116117974    1.1848808997448808    0.0000000000000000    T  T  T            O87
   36.6531875698097451    3.5822991922354483    0.0000000000000000    F  F  F            O88
