cif2pos.py
   1.000
   39.1686756529434632    0.0000000000000000    0.0000000000000000
    0.0000000000000000    6.7963468884617413    0.0000000000000000
    0.0000000000000000    0.0000000000000000    3.8419033096887718
   U  La  O 
   11  1  24
Direct
    0.0430528410330169    0.9907358496129035    0.0000000000000000     U1
    0.2084186532574037    0.6646945057603872    0.0000000000000000     U3
    0.2915990891988045    0.0023768108950861    0.0000000000000000     U4
    0.3746807056682044    0.3408987146988594    0.0000000000000000     U5
    0.4569335316181480    0.6755770079741481    0.0000000000000000     U6
    0.0433302698140849    0.4899830942894496    0.5000000000000000     U7
    0.2915210262341361    0.5024587314221378    0.5000000000000000     U8
    0.1251675489941348    0.8265509661675594    0.5000000000000000     U9
    0.3748304918616441    0.8400663455031534    0.5000000000000000    U10
    0.2084930459779528    0.1646313609581682    0.5000000000000000    U11
    0.4566636768482866    0.1762460534663859    0.5000000000000000    U12
    0.1253278788430876    0.3257306723118916    0.0000000000000000     U2
    0.0234494975573512    0.6553464509185645    0.0000000000000000     O1
    0.0640768902368620    0.3192573872361422    0.0000000000000000     O2
    0.1043812094262577    0.9918664785627840    0.0000000000000000     O3
    0.1460098829392464    0.6599815213557534    0.0000000000000000     O4
    0.1876615350781918    0.3300203309274252    0.0000000000000000     O5
    0.2293268795495464    0.9992700872293767    0.0000000000000000     O6
    0.2706788549372448    0.6681066631815753    0.0000000000000000     O7
    0.3123285583298809    0.3368743874135518    0.0000000000000000     O8
    0.3539860790753977    0.0068970890825426    0.0000000000000000     O9
    0.3956096633530635    0.6744593115999251    0.0000000000000000    O10
    0.4359361076426964    0.3469788370064748    0.0000000000000000    O11
    0.4765410570397890    0.0106856357896206    0.0000000000000000    O12
    0.2707287780479746    0.1678797536587737    0.5000000000000000    O13
    0.0227296589201984    0.1538734998743223    0.5000000000000000    O14
    0.3124392784527288    0.8366066601161677    0.5000000000000000    O15
    0.1462063504319460    0.1619506978536691    0.5000000000000000    O16
    0.3538106744622311    0.5049503267256696    0.5000000000000000    O17
    0.1875849222143984    0.8301844900113480    0.5000000000000000    O18
    0.1036627720396481    0.4906414034954309    0.5000000000000000    O19
    0.3963361678447939    0.1757397441681974    0.5000000000000000    O20
    0.4355367806778432    0.8421628129354204    0.5000000000000000    O21
    0.0644426161275788    0.8243679068016050    0.5000000000000000    O22
    0.2292991795949888    0.4994327526765474    0.5000000000000000    O23
    0.4772218466712843    0.5125096583191748    0.5000000000000000    O24
