cif2pos.py
   1.000
   42.6686756529434632    0.0000000000000000    0.0000000000000000
    0.0000000000000000    6.7963468884617413    0.0000000000000000
    0.0000000000000000    0.0000000000000000    3.8419033096887718
   U    O 
   24   48
Selective Dynamics
Cartesian
    1.6675116306513691    6.7419070975532431    0.0000000000000000    F  F  F             U1
    4.9051169934368346    2.2437626276601375    0.0000000000000000    F  F  F             U2
    8.1597130759896217    4.5417214769248258    0.0000000000000000    F  F  F             U3
   11.4162571614204573    0.0304046470287537    0.0000000000000000    T  T  T             U4
   14.6640142223635781    2.3206328692751637    0.0000000000000000    T  T  T             U5
   17.8888523966630402    4.6019362522572305    0.0000000000000000    T  T  T             U6
   24.7638003090746999    0.0368383238491860    0.0000000000000000    T  T  T             U7
   27.9860250354825411    4.5575137126818559    0.0000000000000000    T  T  T             U8
   31.2402180361754098    2.2539169285273934    0.0000000000000000    T  T  T             U9
   34.4934336947912072    6.7517003380002141    0.0000000000000000    F  F  F            U10
   37.7484929390711272    4.4434568185712138    0.0000000000000000    F  F  F            U11
   40.9639755625726778    2.1504674513234425    0.0000000000000000    F  F  F            U12
    1.6578126628583296    3.3451644564799832    1.9209516548443859    F  F  F            U13
   24.7737919402593789    3.4408634640403180    1.9209516548443859    T  T  T            U14
   27.9793041082809140    1.1539169697697444    1.9209516548443859    T  T  T            U15
   11.4118067068345415    3.4281423572302931    1.9209516548443859    T  T  T            U16
    4.9068679471476866    5.6407354761538135    1.9209516548443859    F  F  F            U17
   31.2431461720227794    5.6525410686494588    1.9209516548443859    T  T  T            U18
   14.6734394533128274    5.7138807665468603    1.9209516548443859    T  T  T            U19
   34.4921509004597198    3.3539693927653627    1.9209516548443859    F  F  F            U20
    8.1588776667573857    1.1437695281765226    1.9209516548443859    F  F  F            U21
   37.7501791681469996    1.0496466257898514    1.9209516548443859    F  F  F            U22
   17.8757733078550984    1.2077924379167055    1.9209516548443859    T  T  T            U23
   40.9629082948985683    5.5503239991675297    1.9209516548443859    F  F  F            U24
    0.8805448507549081    4.4612486561564015    0.0000000000000000    F  F  F             O1
    2.4946006740863731    2.2232165390275274    0.0000000000000000    F  F  F             O2
    4.1084628809352752    6.7688019730414579    0.0000000000000000    F  F  F             O3
    5.7438818290695073    4.5206824783262709    0.0000000000000000    F  F  F             O4
    7.3638382732402095    2.2700227464753699    0.0000000000000000    F  F  F             O5
    8.9975914456721533    0.0225103294413850    0.0000000000000000    F  F  F             O6
   10.5971239721245016    4.5662360397759167    0.0000000000000000    T  T  T             O7
   12.2487103026447706    2.2882997962664797    0.0000000000000000    T  T  T             O8
   13.8743466731536849    0.0467051803657705    0.0000000000000000    T  T  T             O9
   15.4966880983005950    4.5895600338432816    0.0000000000000000    T  T  T            O10
   17.0761852946885462    2.3672940383742782    0.0000000000000000    T  T  T            O11
   18.6730154818255549    0.0827650829132245    0.0000000000000000    T  T  T            O12
   24.0161506101801194    2.3170803212087185    0.0000000000000000    T  T  T            O13
   25.5971022328780684    4.6015498133012933    0.0000000000000000    T  T  T            O14
   27.1754640154983989    0.0280563076673123    0.0000000000000000    T  T  T            O15
   28.8053968401461411    2.2842687776857211    0.0000000000000000    T  T  T            O16
   30.4390983959518096    4.5280141061681585    0.0000000000000000    T  T  T            O17
   32.0675026285545144    6.7759283612866161    0.0000000000000000    T  T  T            O18
   33.6974151719784558    2.2287562700781134    0.0000000000000000    F  F  F            O19
   35.3285173456122479    4.4750416250658258    0.0000000000000000    F  F  F            O20
   36.9584284164185704    6.7143377595801486    0.0000000000000000    F  F  F            O21
   38.5887179949748713    2.1711602404991939    0.0000000000000000    F  F  F            O22
   40.1625319133667631    4.3984338525742972    0.0000000000000000    F  F  F            O23
   41.7428934610649378    6.6900361516079370    0.0000000000000000    F  F  F            O24
   10.6132438491494341    1.1633243834932372    1.9209516548443859    T  T  T            O25
   23.9874753828334271    5.7248453981498821    1.9209516548443859    T  T  T            O26
   25.6118993124231480    1.1676838860201215    1.9209516548443859    T  T  T            O27
    0.8874655021099828    1.0470285032498499    1.9209516548443859    F  F  F            O28
   27.1491662361384449    3.4349560643027819    1.9209516548443859    T  T  T            O29
   12.2319206171700774    5.6964895302870273    1.9209516548443859    T  T  T            O30
    5.7439645429764159    1.1214962620842817    1.9209516548443859    F  F  F            O31
   28.8142694998037889    5.6708297561633687    1.9209516548443859    T  T  T            O32
   30.4353681300719821    1.1288437680662471    1.9209516548443859    T  T  T            O33
   13.8559826276197331    3.4364697088013698    1.9209516548443859    T  T  T            O34
    7.3658098799400467    5.6677151600823183    1.9209516548443859    F  F  F            O35
   32.0661484193729009    3.3755744401538861    1.9209516548443859    T  T  T            O36
   33.6976331964790248    5.6274882800747772    1.9209516548443859    F  F  F            O37
    4.1097895758632577    3.3673132434264441    1.9209516548443859    F  F  F            O38
   35.3295559747066008    1.0768553807464514    1.9209516548443859    F  F  F            O39
   15.5214952230944085    1.2025233998369371    1.9209516548443859    T  T  T            O40
   36.9529763572775352    3.3261398217717519    1.9209516548443859    F  F  F            O41
   17.0593404899113992    5.7334691603770329    1.9209516548443859    T  T  T            O42
    2.5048781130941928    5.6147458795447802    1.9209516548443859    F  F  F            O43
   38.6159112130988404    5.5591018729039323    1.9209516548443859    F  F  F            O44
   40.1409695215134903    1.0269390323882150    1.9209516548443859    F  F  F            O45
    8.9976992274230785    3.4204018239819134    1.9209516548443859    F  F  F            O46
   18.7032817934187925    3.4950529494002853    1.9209516548443859    T  T  T            O47
   41.7686790335616607    3.2717075472280310    1.9209516548443859    F  F  F            O48
