cif2pos.py
   1.000
   40.6686756529434632    0.0000000000000000    0.0000000000000000
    0.0000000000000000    6.7963468884617413    0.0000000000000000
    0.0000000000000000    0.0000000000000000    3.8419033096887718
   U    O 
   24   48
Selective Dynamics
Cartesian
    1.6675116306512663    6.7419070975532431    0.0000000000000000    F  F  F             U1
    4.9051169934369536    2.2437626276601375    0.0000000000000000    F  F  F             U2
    8.1597130759897425    4.5417214769248258    0.0000000000000000    F  F  F             U3
   11.4267798496876090    0.0309116509800752    0.0000000000000000    T  T  T             U4
   14.7067581164135142    2.3372392056392930    0.0000000000000000    T  T  T             U5
   17.9436478542778453    4.6283578351916903    0.0000000000000000    T  T  T             U6
   22.7151056041672348    0.0353925160156813    0.0000000000000000    T  T  T             U7
   25.9502120912163043    4.5504429870700349    0.0000000000000000    T  T  T             U8
   29.2295316364385940    2.2451574160901129    0.0000000000000000    T  T  T             U9
   32.4934336947913067    6.7517003380002141    0.0000000000000000    F  F  F            U10
   35.7484929390712338    4.4434568185712138    0.0000000000000000    F  F  F            U11
   38.9639755625726565    2.1504674513234425    0.0000000000000000    F  F  F            U12
    1.6578126628585037    3.3451644564799832    1.9209516548443859    F  F  F            U13
   22.7146670179630235    3.4335183130166600    1.9209516548443859    T  T  T            U14
   25.9507737197826351    1.1529345295064408    1.9209516548443859    T  T  T            U15
   11.4283717143692360    3.4288854210334878    1.9209516548443859    T  T  T            U16
    4.9068679471478438    5.6407354761538144    1.9209516548443859    F  F  F            U17
   29.2256430965636440    5.6454781431393641    1.9209516548443859    T  T  T            U18
   14.7063058593703282    5.7355902828486132    1.9209516548443859    T  T  T            U19
   32.4921509004597553    3.3539693927653627    1.9209516548443859    F  F  F            U20
    8.1588776667573288    1.1437695281765226    1.9209516548443859    F  F  F            U21
   35.7501791681469498    1.0496466257898514    1.9209516548443859    F  F  F            U22
   17.9439289906637391    1.2300997654579453    1.9209516548443859    T  T  T            U23
   38.9629082948986181    5.5503239991675297    1.9209516548443859    F  F  F            U24
    0.8805448507549922    4.4612486561564015    0.0000000000000000    F  F  F             O1
    2.4946006740862749    2.2232165390275274    0.0000000000000000    F  F  F             O2
    4.1084628809351136    6.7688019730414579    0.0000000000000000    F  F  F             O3
    5.7438818290694149    4.5206824783262709    0.0000000000000000    F  F  F             O4
    7.3638382732401837    2.2700227464753699    0.0000000000000000    F  F  F             O5
    8.9975914456721284    0.0225103294413850    0.0000000000000000    F  F  F             O6
   10.6223045735682717    4.5494915395244533    0.0000000000000000    T  T  T             O7
   12.2660316122307176    2.3067736533724461    0.0000000000000000    T  T  T             O8
   13.9000666777074748    0.0620227988286961    0.0000000000000000    T  T  T             O9
   15.5567354406360270    4.6153928938147146    0.0000000000000000    T  T  T            O10
   17.1264537796774015    2.3743651824512710    0.0000000000000000    T  T  T            O11
   18.7685907468528619    0.1039525880355852    0.0000000000000000    T  T  T            O12
   21.9497213624080025    2.3126879186714016    0.0000000000000000    T  T  T            O13
   23.5615514495697020    4.5850116266142313    0.0000000000000000    T  T  T            O14
   25.1305304796170148    0.0290739690490429    0.0000000000000000    T  T  T            O15
   26.7882148440079320    2.2737037186774587    0.0000000000000000    T  T  T            O16
   28.4229482986050677    4.5205175643940674    0.0000000000000000    T  T  T            O17
   30.0603462069352148    6.7663042657538499    0.0000000000000000    T  T  T            O18
   31.6974151719784274    2.2287562700781134    0.0000000000000000    F  F  F            O19
   33.3285173456122124    4.4750416250658258    0.0000000000000000    F  F  F            O20
   34.9584284164186059    6.7143377595801486    0.0000000000000000    F  F  F            O21
   36.5887179949749424    2.1711602404991939    0.0000000000000000    F  F  F            O22
   38.1625319133668697    4.3984338525742972    0.0000000000000000    F  F  F            O23
   39.7428934610652007    6.6900361516079370    0.0000000000000000    F  F  F            O24
   10.6222853669897646    1.1522784811262545    1.9209516548443859    T  T  T            O25
   21.9501697528472945    5.7105394305881498    1.9209516548443859    T  T  T            O26
   23.5612632310256878    1.1865130550653871    1.9209516548443859    T  T  T            O27
    0.8874655021098415    1.0470285032498499    1.9209516548443859    F  F  F            O28
   25.1293323805172193    3.4267816609066322    1.9209516548443859    T  T  T            O29
   12.2656001657482729    5.7052364354888008    1.9209516548443859    T  T  T            O30
    5.7439645429765918    1.1214962620842817    1.9209516548443859    F  F  F            O31
   26.7872832309839275    5.6701617369726449    1.9209516548443859    T  T  T            O32
   28.4207893075484215    1.1195901237215451    1.9209516548443859    T  T  T            O33
   13.9002087923922666    3.4599897367782524    1.9209516548443859    T  T  T            O34
    7.3658098799401186    5.6677151600823183    1.9209516548443859    F  F  F            O35
   30.0627977625090317    3.3627406893331213    1.9209516548443859    T  T  T            O36
   31.6976331964792628    5.6274882800747772    1.9209516548443859    F  F  F            O37
    4.1097895758633198    3.3673132434264441    1.9209516548443859    F  F  F            O38
   33.3295559747066221    1.0768553807464514    1.9209516548443859    F  F  F            O39
   15.5568836661483374    1.2172557875992456    1.9209516548443859    T  T  T            O40
   34.9529763572775067    3.3261398217717519    1.9209516548443859    F  F  F            O41
   17.1262415709786993    5.7728645941895653    1.9209516548443859    T  T  T            O42
    2.5048781130942523    5.6147458795447811    1.9209516548443859    F  F  F            O43
   36.6159112130990465    5.5591018729039323    1.9209516548443859    F  F  F            O44
   38.1409695215136679    1.0269390323882150    1.9209516548443859    F  F  F            O45
    8.9976992274230501    3.4204018239819134    1.9209516548443859    F  F  F            O46
   18.7683621715320328    3.5023582034548819    1.9209516548443859    T  T  T            O47
   39.7686790335617459    3.2717075472280315    1.9209516548443859    F  F  F            O48
