cif2pos.py
   1.000
   38.3378009073876669    0.0000000000000000    0.0000000000000000
    0.0000000000000000   13.1421435162302842    0.0000000000000000
    0.0000000000000000    0.0000000000000000    3.8761186333578821
   U  Mo  O 
   21  1  44
Direct
    0.0143025460878050    0.9866414055534705    0.0000000000000000     U1
    0.1408824154651569    0.8170411823285235    0.0000000000000000     U2
    0.2708663417742088    0.6357680826187178    0.0000000000000000     U3
    0.4013632505523645    0.4492093775205888    0.0000000000000000     U4
    0.0533936131828838    0.2733247464934792    0.0000000000000000     U5
    0.4437043990747469    0.7307898828858086    0.0000000000000000     U6
    0.0929071046301644    0.5395785765501913    0.0000000000000000     U7
    0.3588296159460782    0.1814975908067638    0.0000000000000000     U9
    0.1856201793324814    0.0897893409872879    0.0000000000000000    U10
    0.3175791051414549    0.9107921501470386    0.0000000000000000    U11
    0.0559390854248534    0.7691636400594177    0.5000000000000000    U12
    0.1823030460680783    0.5885174576784209    0.5000000000000000    U13
    0.3144616272131628    0.4082606428260007    0.5000000000000000    U14
    0.4469116159618594    0.2261288778412123    0.5000000000000000    U15
    0.0987530369934433    0.0503256681759581    0.5000000000000000    U16
    0.4856596604942496    0.5138361635333837    0.5000000000000000    U17
    0.1414554343779528    0.3182255271064989    0.5000000000000000    U18
    0.2723183271794909    0.1356979612904539    0.5000000000000000    U19
    0.4072081813469026    0.9609135006202578    0.5000000000000000    U20
    0.2289077111501641    0.8625289043572053    0.5000000000000000    U21
    0.3587863678647594    0.6817907698025323    0.5000000000000000    U22
    0.2278131236565102    0.3631378445168494    0.0000000000000000     U8
    0.0864175055553034    0.7312804103541168    0.0000000000000000     O1
    0.2163422229259027    0.5445563996434686    0.0000000000000000     O2
    0.3470324782014842    0.3672297319488322    0.0000000000000000     O3
    0.4760629909739009    0.2471313088219631    0.0000000000000000     O4
    0.1296270400340376    0.0009215273934302    0.0000000000000000     O5
    0.0467844791239287    0.4257839645079926    0.0000000000000000     O6
    0.1752100398025505    0.2706317598904775    0.0000000000000000     O7
    0.3052048125809677    0.0899839177498052    0.0000000000000000     O8
    0.4349500778198987    0.8976322181701448    0.0000000000000000     O9
    0.2616133958339830    0.8176228697272805    0.0000000000000000    O10
    0.3929368682231100    0.6330069437907255    0.0000000000000000    O11
    0.1067998832023989    0.8665353536588327    0.5000000000000000    O12
    0.2383271131265019    0.6808289826798628    0.5000000000000000    O13
    0.3703554366099553    0.4981729467504721    0.5000000000000000    O14
    0.0242048649300486    0.2518692264048212    0.5000000000000000    O15
    0.1529724531776111    0.1324062683379452    0.5000000000000000    O16
    0.0649551306117147    0.6024357282573618    0.5000000000000000    O17
    0.1950634818053203    0.4110039206546716    0.5000000000000000    O18
    0.3255001009660177    0.2290481877183481    0.5000000000000000    O19
    0.4535359200791689    0.0734968478111782    0.5000000000000000    O20
    0.2839433006273353    0.9548372454084060    0.5000000000000000    O21
    0.4131158585488919    0.7687876000126366    0.5000000000000000    O22
    0.0416379257336743    0.9582725299900261    0.5000000000000000    O23
    0.1723604189740087    0.7721140144614225    0.5000000000000000    O24
    0.3040547483954796    0.5909047838224737    0.5000000000000000    O25
    0.4385143552332451    0.4038590358267484    0.5000000000000000    O26
    0.0900141273457606    0.2231625275693716    0.5000000000000000    O27
    0.4782479980680279    0.6807795779960628    0.5000000000000000    O28
    0.1279480348627686    0.4957951196174477    0.5000000000000000    O29
    0.2603431940636725    0.3160949990314634    0.5000000000000000    O30
    0.3912022214247770    0.1452818922720596    0.5000000000000000    O31
    0.2177362718477767    0.0431327925014884    0.5000000000000000    O32
    0.3500214318803359    0.8656092302180625    0.5000000000000000    O33
    0.0213615877561963    0.8196678369553823    0.0000000000000000    O34
    0.1493383215973907    0.6345732762887906    0.0000000000000000    O35
    0.2817850666295953    0.4539488842634682    0.0000000000000000    O36
    0.4102968562041553    0.2769700183179324    0.0000000000000000    O37
    0.0617210146501677    0.0961324324919772    0.0000000000000000    O38
    0.4582947453470112    0.5419590707594182    0.0000000000000000    O39
    0.1094176922652821    0.3546683678636384    0.0000000000000000    O40
    0.2395673723805771    0.1801253844807817    0.0000000000000000    O41
    0.3720855707487516    0.0049753841373246    0.0000000000000000    O42
    0.1958439956007467    0.9066845430306856    0.0000000000000000    O43
    0.3272758053116576    0.7264239784788487    0.0000000000000000    O44
