cif2pos.py
   1.000
   40.1686756529434632    0.0000000000000000    0.0000000000000000
    0.0000000000000000    6.7963468884617413    0.0000000000000000
    0.0000000000000000    0.0000000000000000    3.8419033096887718
   U    Nd   O 
   23    1   48
Selective Dynamics
Cartesian
    1.6567284686215973    6.7424777399523803    0.0000000000000000    F  F  F             U1
    4.8947051251320159    2.2377087462436038    0.0000000000000000    F  F  F             U2
    8.1418556843135459    4.5295309922287226    0.0000000000000000    F  F  F             U3
   11.4293371906856631    0.0282541976090846    0.0000000000000000    T  T  T             U4
   14.7281445576367993    2.3246352744793328    0.0000000000000000    T  T  T             U5
   17.9844896474931417    4.6097221681068641    0.0000000000000000    T  T  T             U6
   25.4608086418604209    4.6005329674976272    0.0000000000000000    T  T  T             U7
   28.7222112896779826    2.3022501493642742    0.0000000000000000    T  T  T             U8
   32.0164013872885818    6.7876030423739087    0.0000000000000000    F  F  F             U9
   35.2679279738276676    4.4695045091764323    0.0000000000000000    F  F  F            U10
   38.4753634877341426    2.1729731768698324    0.0000000000000000    F  F  F            U11
    1.6574185290536274    3.3442666325340840    1.9209516548443859    F  F  F            U12
   22.2265697293198379    3.4765635967117596    1.9209516548443859    T  T  T            U13
   25.4193900815914979    1.1985699272174444    1.9209516548443859    T  T  T            U14
   11.4306405906198609    3.4273820729849414    1.9209516548443859    T  T  T            U15
    4.8941336253384327    5.6360909281144265    1.9209516548443859    F  F  F            U16
   28.7243970910668551    5.7084469966343105    1.9209516548443859    T  T  T            U17
   14.7271055885588407    5.7301266406766294    1.9209516548443859    T  T  T            U18
   32.0108289445772698    3.3895322968681780    1.9209516548443859    F  F  F            U19
    8.1434232869978320    1.1303576986414317    1.9209516548443859    F  F  F            U20
   35.2692390428327016    1.0721251852441771    1.9209516548443859    F  F  F            U21
   17.9829533513309556    1.2163245018220041    1.9209516548443859    T  T  T            U22
   38.4744243196095042    5.5708437962460584    1.9209516548443859    F  F  F            U23
   22.1472620256544133    0.0409679689289026    0.0000000000000000    T  T  T            Nd1
    0.8772368953825355    4.4514174405942022    0.0000000000000000    F  F  F             O1
    2.4891254630323343    2.2176594374174421    0.0000000000000000    F  F  F             O2
    4.0969544413614472    6.7623490519017615    0.0000000000000000    F  F  F             O3
    5.7277203279172220    4.5136492712593279    0.0000000000000000    F  F  F             O4
    7.3468045519465486    2.2575055749182256    0.0000000000000000    F  F  F             O5
    8.9765718581750455    0.0070280468307080    0.0000000000000000    F  F  F             O6
   10.6237927057834121    4.5515096403265716    0.0000000000000000    T  T  T             O7
   12.2754773639756944    2.3032794852493628    0.0000000000000000    T  T  T             O8
   13.9139105433691164    0.0450384328851389    0.0000000000000000    T  T  T             O9
   15.6110873165569224    4.6101744047670525    0.0000000000000000    T  T  T            O10
   17.1434268952285187    2.3188612669044950    0.0000000000000000    T  T  T            O11
   18.8963002893283623    0.1069031440372122    0.0000000000000000    T  T  T            O12
   21.3373666350164477    2.6112738526856991    0.0000000000000000    T  T  T            O13
   23.1280493892995089    4.5103234579291991    0.0000000000000000    T  T  T            O14
   24.5840299110861764    0.0806566590181780    0.0000000000000000    T  T  T            O15
   26.2875361451338101    2.3157352493789545    0.0000000000000000    T  T  T            O16
   27.9040387328130208    4.5812603370754346    0.0000000000000000    T  T  T            O17
   29.5666558512002240    0.0203975583849587    0.0000000000000000    T  T  T            O18
   31.2139469297574550    2.2667563953492809    0.0000000000000000    F  F  F            O19
   32.8470786732231517    4.5102682465768087    0.0000000000000000    F  F  F            O20
   34.4728549722829598    6.7453504369780051    0.0000000000000000    F  F  F            O21
   36.1182692338082347    2.1891546081282538    0.0000000000000000    F  F  F            O22
   37.6631118469447870    4.4299322426600654    0.0000000000000000    F  F  F            O23
   39.2571815119351157    6.6863960192407683    0.0000000000000000    F  F  F            O24
   10.6213600350118913    1.1549658585669280    1.9209516548443859    T  T  T            O25
   21.4575482097378902    5.4740840223085563    1.9209516548443859    T  T  T            O26
   22.9289351134281212    1.3546938283387284    1.9209516548443859    T  T  T            O27
    0.8760881045913986    1.0543836263838127    1.9209516548443859    F  F  F            O28
   24.6555360623936295    3.4680628230104817    1.9209516548443859    T  T  T            O29
   12.2737944300603417    5.7047467823973612    1.9209516548443859    T  T  T            O30
    5.7281351097976598    1.1156129177822960    1.9209516548443859    F  F  F            O31
   26.2818529037468238    5.7567347243086298    1.9209516548443859    T  T  T            O32
   27.9220792140805969    1.1869346098157907    1.9209516548443859    T  T  T            O33
   13.9202431579112833    3.4633954164201972    1.9209516548443859    T  T  T            O34
    7.3457248057977047    5.6552727609153361    1.9209516548443859    F  F  F            O35
   29.5650762151867426    3.4308033564572789    1.9209516548443859    T  T  T            O36
   31.2192540027424528    5.6672149207973161    1.9209516548443859    F  F  F            O37
    4.0970943535121789    3.3646240940204297    1.9209516548443859    F  F  F            O38
   32.8478645081963023    1.1103403505926746    1.9209516548443859    F  F  F            O39
   15.5592846835618683    1.2026823735473460    1.9209516548443859    T  T  T            O40
   34.4729163691855263    3.3464305370631529    1.9209516548443859    F  F  F            O41
   17.1806323367968972    5.7886715866358136    1.9209516548443859    T  T  T            O42
    2.4881483209231781    5.6162416723327020    1.9209516548443859    F  F  F            O43
   36.1178546313511788    5.5875427636748602    1.9209516548443859    F  F  F            O44
   37.6640535609269804    1.0323322356642102    1.9209516548443859    F  F  F            O45
    8.9772183750820602    3.4064774175835035    1.9209516548443859    F  F  F            O46
   18.7393047399348234    3.4789827937299016    1.9209516548443859    T  T  T            O47
   39.2573067434404166    3.2893811621599389    1.9209516548443859    F  F  F            O48
