cif2pos.py
   1.000
   44.1686756529434632    0.0000000000000000    0.0000000000000000
    0.0000000000000000    6.7963468884617413    0.0000000000000000
    0.0000000000000000    0.0000000000000000    3.8419033096887718
   U    O 
   24   48
Selective Dynamics
Cartesian
    1.6336382601606416    6.7952536518129811    0.0000000000000000    F  F  F             U1
    4.8981774689627047    2.2655927305148849    0.0000000000000000    F  F  F             U2
    8.1627361399184242    4.5314234418361519    0.0000000000000000    F  F  F             U3
   11.4054704443926500    0.0060034098392456    0.0000000000000000    T  T  T             U4
   14.6570670897719193    2.2964215335957330    0.0000000000000000    T  T  T             U5
   17.8554138450046658    4.5891297787971546    0.0000000000000000    T  T  T             U6
   26.2767268995986640    6.7288092728905520    0.0000000000000000    T  T  T             U7
   29.4972339440217191    2.2070607858989555    0.0000000000000000    T  T  T             U8
   32.7525179475954289    4.5061334257487902    0.0000000000000000    T  T  T             U9
   36.0082671330773678    6.7962546843396670    0.0000000000000000    F  F  F            U10
   39.2731683681461448    2.2654031960728589    0.0000000000000000    F  F  F            U11
   42.5378034785549062    4.5293657440714314    0.0000000000000000    F  F  F            U12
    1.6336351399957700    3.3970921938147001    1.9209516548443859    F  F  F            U13
   26.2874596208007816    3.3265200055777258    1.9209516548443859    T  T  T            U14
   29.4919400052103100    5.6109629590290577    1.9209516548443859    T  T  T            U15
   11.4112162684247664    3.4080308070023189    1.9209516548443859    T  T  T            U16
    4.8984039369444679    5.6637277549531726    1.9209516548443859    F  F  F            U17
   32.7542545430137650    1.1077574455840959    1.9209516548443859    T  T  T            U18
   14.6531124147245819    5.7022340449787832    1.9209516548443859    T  T  T            U19
   36.0082832591549149    3.3980823914578870    1.9209516548443859    F  F  F            U20
    8.1623124546534953    1.1338847677591648    1.9209516548443859    F  F  F            U21
   39.2731678253637355    5.6635414020320205    1.9209516548443859    F  F  F            U22
   17.8599028751839626    1.1803275192221960    1.9209516548443859    T  T  T            U23
   42.5378204192964660    1.1312086793837770    1.9209516548443859    F  F  F            U24
    0.8137301793842316    4.5276033017664510    0.0000000000000000    F  F  F             O1
    2.4540071292640162    2.2662466169392674    0.0000000000000000    F  F  F             O2
    4.0784452792422767    6.7934049956262301    0.0000000000000000    F  F  F             O3
    5.7185431040003847    4.5351749834988562    0.0000000000000000    F  F  F             O4
    7.3423258894306933    2.2608624879943204    0.0000000000000000    F  F  F             O5
    8.9820631145805905    0.0045270542764150    0.0000000000000000    F  F  F             O6
   10.5902976053044711    4.5211205885185626    0.0000000000000000    T  T  T             O7
   12.2418418056910099    2.2807083160669479    0.0000000000000000    T  T  T             O8
   13.8334926320985137    0.0153514013177684    0.0000000000000000    T  T  T             O9
   15.5070034398962822    4.5910626668343193    0.0000000000000000    T  T  T            O10
   17.0030867103620729    2.3109330321571373    0.0000000000000000    T  T  T            O11
   18.6598416776565443    0.0805721061963689    0.0000000000000000    T  T  T            O12
   25.5087634983869087    4.4504014463726911    0.0000000000000000    T  T  T            O13
   27.0977995324612877    2.1667570599433357    0.0000000000000000    T  T  T            O14
   28.6756696044403618    6.7369609153220589    0.0000000000000000    T  T  T            O15
   30.3085408014318318    4.4790502852345684    0.0000000000000000    T  T  T            O16
   31.9381688970374462    2.2324246429642662    0.0000000000000000    T  T  T            O17
   33.5725783886800357    6.7788366484541651    0.0000000000000000    T  T  T            O18
   35.1877113515183240    4.5291231038273487    0.0000000000000000    F  F  F            O19
   36.8290422806988289    2.2672647887559920    0.0000000000000000    F  F  F            O20
   38.4531899901484024    6.7934566105039060    0.0000000000000000    F  F  F            O21
   40.0929191958701878    4.5347270880160746    0.0000000000000000    F  F  F            O22
   41.7186243927968832    2.2596273944147014    0.0000000000000000    F  F  F            O23
   43.3574690190793888    0.0016384913973780    0.0000000000000000    F  F  F            O24
   10.5928977959290336    1.1346759732565108    1.9209516548443859    T  T  T            O25
   25.4829094875607929    1.0395850654342131    1.9209516548443859    T  T  T            O26
   27.1165459297797717    5.5970686984158124    1.9209516548443859    T  T  T            O27
    0.8137733779683642    1.1295560238617510    1.9209516548443859    F  F  F            O28
   28.6511508308165830    3.3294459787008330    1.9209516548443859    T  T  T            O29
   12.2074227200826844    5.6778537861709895    1.9209516548443859    T  T  T            O30
    5.7184591831331764    1.1373435199975868    1.9209516548443859    F  F  F            O31
   30.3133050117299270    1.0914928034432785    1.9209516548443859    T  T  T            O32
   31.9368494505257203    5.6319742011062113    1.9209516548443859    T  T  T            O33
   13.8502395873670121    3.4494525448185565    1.9209516548443859    T  T  T            O34
    7.3428025659713372    5.6590842312505307    1.9209516548443859    F  F  F            O35
   33.5721713057332920    3.3810869602473637    1.9209516548443859    T  T  T            O36
   35.1876951700500129    1.1310718934428434    1.9209516548443859    F  F  F            O37
    4.0780753028547849    3.3953209167486702    1.9209516548443859    F  F  F            O38
   36.8288610796254687    5.6655192214360435    1.9209516548443859    F  F  F            O39
   15.4629649275097716    1.1588210282753089    1.9209516548443859    T  T  T            O40
   38.4531324269333226    3.3954986112580472    1.9209516548443859    F  F  F            O41
   17.0590428134162266    5.7460399314317989    1.9209516548443859    T  T  T            O42
    2.4538342425719009    5.6644855245262562    1.9209516548443859    F  F  F            O43
   40.0927842851737140    1.1367468163375776    1.9209516548443859    F  F  F            O44
   41.7183256119443655    5.6578588349840810    1.9209516548443859    F  F  F            O45
    8.9814318643764217    3.4016410918593389    1.9209516548443859    F  F  F            O46
   18.6255844195318403    3.4541062086490424    1.9209516548443859    T  T  T            O47
   43.3574758207298032    3.3999467610992027    1.9209516548443859    F  F  F            O48
