cif2pos.py
   1.000
   41.1686756529434632    0.0000000000000000    0.0000000000000000
    0.0000000000000000    6.7963468884617413    0.0000000000000000
    0.0000000000000000    0.0000000000000000    3.8419033096887718
   U    Mo   O 
   23    1   48
Selective Dynamics
Cartesian
    1.6855029219569684    6.7398798469104175    0.0000000000000000    F  F  F             U1
    4.9480404751387068    2.2404152893236766    0.0000000000000000    F  F  F             U2
    8.2251997762264981    4.5209791195352160    0.0000000000000000    F  F  F             U3
   11.4823664912820327    6.7920135415433975    0.0000000000000000    T  T  T             U4
   14.7472929533929236    2.2985006360537983    0.0000000000000000    T  T  T             U5
   17.9727863273919439    4.5792960109208583    0.0000000000000000    T  T  T             U6
   26.3693811380460907    4.5886046682752388    0.0000000000000000    T  T  T             U7
   29.6443607417732125    2.3008923819790570    0.0000000000000000    T  T  T             U8
   32.9009341145861640    0.0029331910985933    0.0000000000000000    F  F  F             U9
   36.1823239266891434    4.4741253791298030    0.0000000000000000    F  F  F            U10
   39.4131336696063883    2.1742939324955763    0.0000000000000000    F  F  F            U11
    1.6845270522848823    3.3426786684950147    1.9209516548443859    F  F  F            U12
   23.2635625041601664    3.4067068768785571    1.9209516548443859    T  T  T            U13
   26.3973221907074524    1.1860364386518831    1.9209516548443859    T  T  T            U14
   11.4825617315427824    3.3934851802153365    1.9209516548443859    T  T  T            U15
    4.9526068840669737    5.6401259605188718    1.9209516548443859    F  F  F            U16
   29.6459995814522834    5.6979558873804219    1.9209516548443859    T  T  T            U17
   14.7498509084384253    5.6904618664784810    1.9209516548443859    T  T  T            U18
   32.8997445441182990    3.3982931992869307    1.9209516548443859    F  F  F            U19
    8.2241279969764687    1.1258363211308535    1.9209516548443859    F  F  F            U20
   36.1828496784192524    1.0759508131172311    1.9209516548443859    F  F  F            U21
   17.9674902920206279    1.1805823637313460    1.9209516548443859    T  T  T            U22
   39.4133056259934449    5.5724977085267549    1.9209516548443859    F  F  F            U23
   23.4103612748442274    0.1845616921200440    0.0000000000000000    T  T  T            Mo1
    0.9021505409376991    4.4509612554864200    0.0000000000000000    F  F  F             O1
    2.5256505024662412    2.2179484262475917    0.0000000000000000    F  F  F             O2
    4.1419721598987644    6.7642756353088496    0.0000000000000000    F  F  F             O3
    5.7946990426176184    4.5193501795688311    0.0000000000000000    F  F  F             O4
    7.4259042139949729    2.2582379408181912    0.0000000000000000    F  F  F             O5
    9.0582490485767266    6.7917422091289916    0.0000000000000000    F  F  F             O6
   10.6685715586504042    4.5199185350678821    0.0000000000000000    T  T  T             O7
   12.3099258863466865    2.2707980055258141    0.0000000000000000    T  T  T             O8
   13.9433754334502478    0.0308169930705755    0.0000000000000000    T  T  T             O9
   15.5717879121331446    4.5682574184512319    0.0000000000000000    T  T  T            O10
   17.1656316238644528    2.3503583672578561    0.0000000000000000    T  T  T            O11
   18.7347280024539273    0.0537321617501778    0.0000000000000000    T  T  T            O12
   22.5693685169300267    1.9920179251309988    0.0000000000000000    T  T  T            O13
   23.9796539582923351    4.4308491917267459    0.0000000000000000    T  T  T            O14
   25.4526727567966020    6.7885241117191146    0.0000000000000000    T  T  T            O15
   27.2146271067004726    2.3001114091020800    0.0000000000000000    T  T  T            O16
   28.8332209004636866    4.5734910475346569    0.0000000000000000    T  T  T            O17
   30.4726177436576329    0.0230325039766958    0.0000000000000000    T  T  T            O18
   32.0938383744056566    2.2798230444287397    0.0000000000000000    F  F  F            O19
   33.7414950667203044    4.5165168002694802    0.0000000000000000    F  F  F            O20
   35.3789229736764881    6.7507334053623635    0.0000000000000000    F  F  F            O21
   37.0373918957790949    2.1916809799429977    0.0000000000000000    F  F  F            O22
   38.5950075057135038    4.4320508249321540    0.0000000000000000    F  F  F            O23
   40.2141863199952141    6.6865160299611377    0.0000000000000000    F  F  F            O24
   10.6735501169643676    1.1138340937225675    1.9209516548443859    T  T  T            O25
   22.8208985842661711    5.9890373518199098    1.9209516548443859    T  T  T            O26
   24.1519465557231143    1.2725620613762656    1.9209516548443859    T  T  T            O27
    0.9046241944264879    1.0523308074630973    1.9209516548443859    F  F  F            O28
   25.6239879941957298    3.4772995101723430    1.9209516548443859    T  T  T            O29
   12.3123956587664303    5.6654111329971402    1.9209516548443859    T  T  T            O30
    5.7864650541591489    1.1221846089237704    1.9209516548443859    F  F  F            O31
   27.2047240411135220    5.7489792231476757    1.9209516548443859    T  T  T            O32
   28.8457772193972595    1.1761542005149361    1.9209516548443859    T  T  T            O33
   13.9385870486577605    3.4116916701762547    1.9209516548443859    T  T  T            O34
    7.4115005716281148    5.6630279208028487    1.9209516548443859    F  F  F            O35
   30.4762477272354886    3.4201966089130269    1.9209516548443859    T  T  T            O36
   32.0938007733110879    5.6777272792500106    1.9209516548443859    F  F  F            O37
    4.1422145057120963    3.3661161180598778    1.9209516548443859    F  F  F            O38
   33.7437861008882933    1.1207089355078275    1.9209516548443859    F  F  F            O39
   15.6109172228346189    1.1778712483965557    1.9209516548443859    T  T  T            O40
   35.3780814172200735    3.3532547475659067    1.9209516548443859    F  F  F            O41
   17.1392694212388719    5.6961738686289465    1.9209516548443859    T  T  T            O42
    2.5256980306944570    5.6142216251607406    1.9209516548443859    F  F  F            O43
   37.0372636815035463    5.5898427400736974    1.9209516548443859    F  F  F            O44
   38.5952343084474236    1.0335870452003175    1.9209516548443859    F  F  F            O45
    9.0774117761348396    3.3830736031559132    1.9209516548443859    F  F  F            O46
   18.8224283593098534    3.4712481952455692    1.9209516548443859    T  T  T            O47
   40.2137140637185340    3.2878179727181283    1.9209516548443859    F  F  F            O48
