cif2pos.py
   1.000
   41.6686756529434632    0.0000000000000000    0.0000000000000000
    0.0000000000000000    6.7963468884617413    0.0000000000000000
    0.0000000000000000    0.0000000000000000    3.8419033096887718
   U    La   O 
   23    1   48
Selective Dynamics
Cartesian
    1.6515662758113758    6.7613247645821168    0.0000000000000000    F  F  F             U1
    4.8860701202154617    2.2558078850929824    0.0000000000000000    F  F  F             U2
    8.1217163788520566    4.5244694989853187    0.0000000000000000    F  F  F             U3
   11.3882223997768968    0.0054967068722752    0.0000000000000000    T  T  T             U4
   14.6551596438620972    2.3048398943681740    0.0000000000000000    T  T  T             U5
   17.8770745163495128    4.5833620820980077    0.0000000000000000    T  T  T             U6
   27.0467126512161364    4.5558983567018734    0.0000000000000000    T  T  T             U7
   30.2814735185787498    2.2619991518417661    0.0000000000000000    T  T  T             U8
   33.5398862701435405    6.7804678708485078    0.0000000000000000    F  F  F             U9
   36.7872979695851399    4.4822393811649910    0.0000000000000000    F  F  F            U10
   39.9872275652472879    2.1875917301140011    0.0000000000000000    F  F  F            U11
    1.6518292912557673    3.3625286806774803    1.9209516548443859    F  F  F            U12
   23.8124230212115755    3.4245873781791674    1.9209516548443859    T  T  T            U13
   26.9977164245185755    1.1554398044902696    1.9209516548443859    T  T  T            U14
   11.3831970783392826    3.4014396200264789    1.9209516548443859    T  T  T            U15
    4.8827285227217745    5.6520375574239479    1.9209516548443859    F  F  F            U16
   30.2872482273317587    5.6669589179900086    1.9209516548443859    T  T  T            U17
   14.6576860077009652    5.7022707401659716    1.9209516548443859    T  T  T            U18
   33.5408894504230162    3.3810705742101259    1.9209516548443859    F  F  F            U19
    8.1205463068198220    1.1251281333827223    1.9209516548443859    F  F  F            U20
   36.7850492446696578    1.0853236806499302    1.9209516548443859    F  F  F            U21
   17.8718005584413291    1.1880904168715862    1.9209516548443859    T  T  T            U22
   39.9875748968153530    5.5861044447056454    1.9209516548443859    F  F  F            U23
   23.7216048277787621    6.7853629081256353    0.0000000000000000    T  T  T            La1
    0.8698894212143262    4.4702627993058108    0.0000000000000000    F  F  F             O1
    2.4803482425952224    2.2362244878326640    0.0000000000000000    F  F  F             O2
    4.0889854427765542    6.7808393711880104    0.0000000000000000    F  F  F             O3
    5.7091098046683530    4.5324724382742962    0.0000000000000000    F  F  F             O4
    7.3184410959471879    2.2696709216458841    0.0000000000000000    F  F  F             O5
    8.9613115350113279    6.7786376535634680    0.0000000000000000    F  F  F             O6
   10.5800762226707921    4.5199193232718837    0.0000000000000000    T  T  T             O7
   12.2200846666281997    2.2758800694786436    0.0000000000000000    T  T  T             O8
   13.8509350939667701    0.0287407886877740    0.0000000000000000    T  T  T             O9
   15.5043993355059566    4.5803427967642651    0.0000000000000000    T  T  T            O10
   17.0587726166975209    2.3272958067787166    0.0000000000000000    T  T  T            O11
   18.7007308408848125    0.0765584277350542    0.0000000000000000    T  T  T            O12
   22.9288489985864032    2.5400747528584593    0.0000000000000000    T  T  T            O13
   24.6876853625726156    4.4555422170787491    0.0000000000000000    T  T  T            O14
   26.1828353852401179    0.0276408542229186    0.0000000000000000    T  T  T            O15
   27.8435790812159496    2.2585275722969032    0.0000000000000000    T  T  T            O16
   29.4670319399626663    4.5157846586575037    0.0000000000000000    T  T  T            O17
   31.1324344692566619    0.0145221466529055    0.0000000000000000    T  T  T            O18
   32.7526945776902849    2.2503065484774973    0.0000000000000000    F  F  F            O19
   34.3634170782613069    4.5097068475592037    0.0000000000000000    F  F  F            O20
   35.9891404652370923    6.7582391213334265    0.0000000000000000    F  F  F            O21
   37.6339997885080848    2.2030853059671309    0.0000000000000000    F  F  F            O22
   39.1768504264163155    4.4444650706892501    0.0000000000000000    F  F  F            O23
   40.7641524216189808    6.7036343002928218    0.0000000000000000    F  F  F            O24
   10.5785602905103850    1.1354145398239150    1.9209516548443859    T  T  T            O25
   23.0116388061986612    5.4039430410243581    1.9209516548443859    T  T  T            O26
   24.5454297786805640    1.3131122205413375    1.9209516548443859    T  T  T            O27
    0.8688917680686014    1.0717105590299221    1.9209516548443859    F  F  F            O28
   26.2298232912511509    3.4406589393250773    1.9209516548443859    T  T  T            O29
   12.2171442264005545    5.6806417651848937    1.9209516548443859    T  T  T            O30
    5.7203190225651461    1.1338478095879658    1.9209516548443859    F  F  F            O31
   27.8709329719500971    5.6932218360108706    1.9209516548443859    T  T  T            O32
   29.4800261618873236    1.1263233233204371    1.9209516548443859    T  T  T            O33
   13.8477440414138737    3.4309488317629895    1.9209516548443859    T  T  T            O34
    7.3340925341407459    5.6600723334398628    1.9209516548443859    F  F  F            O35
   31.1034158114393122    3.4029418000027793    1.9209516548443859    T  T  T            O36
   32.7343176254410295    5.6417159044675875    1.9209516548443859    F  F  F            O37
    4.0883290913741863    3.3820107765464278    1.9209516548443859    F  F  F            O38
   34.3820209576589448    1.1193207416677939    1.9209516548443859    F  F  F            O39
   15.4988478857127188    1.1842247963396035    1.9209516548443859    T  T  T            O40
   35.9957131279792861    3.3620964806655707    1.9209516548443859    F  F  F            O41
   17.0634951396294099    5.7352755892415228    1.9209516548443859    T  T  T            O42
    2.4810717692123960    5.6351993149044350    1.9209516548443859    F  F  F            O43
   37.6335318808063874    5.6007375472865828    1.9209516548443859    F  F  F            O44
   39.1774707556458850    1.0463493234173424    1.9209516548443859    F  F  F            O45
    8.9438557199955717    3.3905339892836333    1.9209516548443859    F  F  F            O46
   18.6683687329125725    3.4722722790698111    1.9209516548443859    T  T  T            O47
   40.7643318745914698    3.3060797751974023    1.9209516548443859    F  F  F            O48
