cif2pos.py
   1.000
   45.1686756529434632    0.0000000000000000    0.0000000000000000
    0.0000000000000000    6.7963468884617413    0.0000000000000000
    0.0000000000000000    0.0000000000000000    3.8419033096887718
   U    O 
   24   48
Selective Dynamics
Cartesian
    1.6336382601605239    6.7952536518129811    0.0000000000000000    F  F  F             U1
    4.8981774689626185    2.2655927305148849    0.0000000000000000    F  F  F             U2
    8.1627361399182234    4.5314234418361519    0.0000000000000000    F  F  F             U3
   11.4093457596769383    0.0154505804539536    0.0000000000000000    T  T  T             U4
   14.6630126019131382    2.3112192166961854    0.0000000000000000    T  T  T             U5
   17.8551219538870392    4.5947638512709164    0.0000000000000000    T  T  T             U6
   27.2851300453933447    6.7183047756414451    0.0000000000000000    T  T  T             U7
   30.4898476151023665    2.2083046052637094    0.0000000000000000    T  T  T             U8
   33.7537252616954646    4.5036706065938601    0.0000000000000000    T  T  T             U9
   37.0082671330772897    6.7962546843396670    0.0000000000000000    F  F  F            U10
   40.2731683681460879    2.2654031960728589    0.0000000000000000    F  F  F            U11
   43.5378034785547854    4.5293657440714314    0.0000000000000000    F  F  F            U12
    1.6336351399959428    3.3970921938147001    1.9209516548443859    F  F  F            U13
   27.2755050740325231    3.3238983870042738    1.9209516548443859    T  T  T            U14
   30.4951981335898168    5.6012909540725744    1.9209516548443859    T  T  T            U15
   11.4083962911686267    3.4085415222311508    1.9209516548443859    T  T  T            U16
    4.8984039369445531    5.6637277549531726    1.9209516548443859    F  F  F            U17
   33.7512381881062282    1.1054225866558762    1.9209516548443859    T  T  T            U18
   14.6540413663386389    5.7134014006301710    1.9209516548443859    T  T  T            U19
   37.0082832591546662    3.3980823914578870    1.9209516548443859    F  F  F            U20
    8.1623124546534847    1.1338847677591648    1.9209516548443859    F  F  F            U21
   40.2731678253637497    5.6635414020320205    1.9209516548443859    F  F  F            U22
   17.8704855695681779    1.1992172327635209    1.9209516548443859    T  T  T            U23
   43.5378204192965157    1.1312086793837770    1.9209516548443859    F  F  F            U24
    0.8137301793841748    4.5276033017664510    0.0000000000000000    F  F  F             O1
    2.4540071292640215    2.2662466169392674    0.0000000000000000    F  F  F             O2
    4.0784452792420263    6.7934049956262301    0.0000000000000000    F  F  F             O3
    5.7185431040004104    4.5351749834988562    0.0000000000000000    F  F  F             O4
    7.3423258894308843    2.2608624879943204    0.0000000000000000    F  F  F             O5
    8.9820631145805940    0.0045270542764150    0.0000000000000000    F  F  F             O6
   10.5932699634995000    4.5361692896343397    0.0000000000000000    T  T  T             O7
   12.2087865274723324    2.2847005814895662    0.0000000000000000    T  T  T             O8
   13.8489877454846138    0.0521937707023903    0.0000000000000000    T  T  T             O9
   15.4920228250813850    4.5746619584197381    0.0000000000000000    T  T  T            O10
   17.0486716732264227    2.3279868438752533    0.0000000000000000    T  T  T            O11
   18.6565873474790003    0.0770135798383948    0.0000000000000000    T  T  T            O12
   26.4838679235868746    4.4316875953438597    0.0000000000000000    T  T  T            O13
   28.1125419176991187    2.1916030467871233    0.0000000000000000    T  T  T            O14
   29.6493621923089528    6.7238941050167949    0.0000000000000000    T  T  T            O15
   31.3105902114803705    4.4862005212405345    0.0000000000000000    T  T  T            O16
   32.9356801699978448    2.2294974482045444    0.0000000000000000    T  T  T            O17
   34.5719195917600786    6.7785151397834040    0.0000000000000000    T  T  T            O18
   36.1877113515181392    4.5291231038273487    0.0000000000000000    F  F  F            O19
   37.8290422806987436    2.2672647887559920    0.0000000000000000    F  F  F            O20
   39.4531899901484877    6.7934566105039060    0.0000000000000000    F  F  F            O21
   41.0929191958703228    4.5347270880160746    0.0000000000000000    F  F  F            O22
   42.7186243927966771    2.2596273944147014    0.0000000000000000    F  F  F            O23
   44.3574690190795877    0.0016384913973780    0.0000000000000000    F  F  F            O24
   10.5893437958517289    1.1281932281490550    1.9209516548443859    T  T  T            O25
   26.5048648297089535    1.0456144796471101    1.9209516548443859    T  T  T            O26
   28.0968103039375663    5.5592327212174064    1.9209516548443859    T  T  T            O27
    0.8137733779684493    1.1295560238617510    1.9209516548443859    F  F  F            O28
   29.6757382869243003    3.3340812907647339    1.9209516548443859    T  T  T            O29
   12.2422033772335208    5.6870449958312870    1.9209516548443859    T  T  T            O30
    5.7184591831333158    1.1373435199975868    1.9209516548443859    F  F  F            O31
   31.3046408038050181    1.0757474617533545    1.9209516548443859    T  T  T            O32
   32.9380020604831785    5.6266919771819177    1.9209516548443859    T  T  T            O33
   13.8398575967907114    3.4342666849883141    1.9209516548443859    T  T  T            O34
    7.3428025659712644    5.6590842312505307    1.9209516548443859    F  F  F            O35
   34.5727405740438343    3.3792657116557621    1.9209516548443859    T  T  T            O36
   36.1876951700501692    1.1310718934428434    1.9209516548443859    F  F  F            O37
    4.0780753028549599    3.3953209167486702    1.9209516548443859    F  F  F            O38
   37.8288610796255824    5.6655192214360435    1.9209516548443859    F  F  F            O39
   15.4861835585687437    1.1938822377356537    1.9209516548443859    T  T  T            O40
   39.4531324269332586    3.3954986112580472    1.9209516548443859    F  F  F            O41
   17.0254408573229092    5.7502276317937637    1.9209516548443859    T  T  T            O42
    2.4538342425718285    5.6644855245262562    1.9209516548443859    F  F  F            O43
   41.0927842851735718    1.1367468163375776    1.9209516548443859    F  F  F            O44
   42.7183256119443087    5.6578588349840810    1.9209516548443859    F  F  F            O45
    8.9814318643763276    3.4016410918593389    1.9209516548443859    F  F  F            O46
   18.6428356525215655    3.4759643561787819    1.9209516548443859    T  T  T            O47
   44.3574758207298387    3.3999467610992027    1.9209516548443859    F  F  F            O48
