cif2pos.py
   1.000
   42.1686756529434632    0.0000000000000000    0.0000000000000000
    0.0000000000000000    6.7963468884617413    0.0000000000000000
    0.0000000000000000    0.0000000000000000    3.8419033096887718
   U    O 
   24   48
Selective Dynamics
Cartesian
    1.6675116306513553    6.7419070975532431    0.0000000000000000    F  F  F             U1
    4.9051169934370256    2.2437626276601375    0.0000000000000000    F  F  F             U2
    8.1597130759895506    4.5417214769248258    0.0000000000000000    F  F  F             U3
   11.4162026279778814    0.0504354594382496    0.0000000000000000    T  T  T             U4
   14.6796849006041938    2.3483678573878608    0.0000000000000000    T  T  T             U5
   17.8851097217308741    4.6339963728170739    0.0000000000000000    T  T  T             U6
   24.2769254722213361    0.0303450953408126    0.0000000000000000    T  T  T             U7
   27.4990111668027168    4.5510538378756431    0.0000000000000000    T  T  T             U8
   30.7507653639982159    2.2467953944745322    0.0000000000000000    T  T  T             U9
   33.9934336947911504    6.7517003380002141    0.0000000000000000    F  F  F            U10
   37.2484929390710562    4.4434568185712138    0.0000000000000000    F  F  F            U11
   40.4639755625724717    2.1504674513234425    0.0000000000000000    F  F  F            U12
    1.6578126628583154    3.3451644564799832    1.9209516548443859    F  F  F            U13
   24.2860539342574029    3.4327742894589091    1.9209516548443859    T  T  T            U14
   27.4935839145184175    1.1471525209623223    1.9209516548443859    T  T  T            U15
   11.4187353283781956    3.4485138266751663    1.9209516548443859    T  T  T            U16
    4.9068679471477754    5.6407354761538135    1.9209516548443859    F  F  F            U17
   30.7558037160643742    5.6429615055062410    1.9209516548443859    T  T  T            U18
   14.6743829006475828    5.7520965090756864    1.9209516548443859    T  T  T            U19
   33.9921509004597837    3.3539693927653627    1.9209516548443859    F  F  F            U20
    8.1588776667575296    1.1437695281765226    1.9209516548443859    F  F  F            U21
   37.2501791681470209    1.0496466257898514    1.9209516548443859    F  F  F            U22
   17.8956044991697105    1.2334279988889882    1.9209516548443859    T  T  T            U23
   40.4629082948985044    5.5503239991675297    1.9209516548443859    F  F  F            U24
    0.8805448507548747    4.4612486561564015    0.0000000000000000    F  F  F             O1
    2.4946006740862350    2.2232165390275274    0.0000000000000000    F  F  F             O2
    4.1084628809352495    6.7688019730414579    0.0000000000000000    F  F  F             O3
    5.7438818290694638    4.5206824783262709    0.0000000000000000    F  F  F             O4
    7.3638382732403285    2.2700227464753699    0.0000000000000000    F  F  F             O5
    8.9975914456720165    0.0225103294413850    0.0000000000000000    F  F  F             O6
   10.6052757046343515    4.5718876706262961    0.0000000000000000    T  T  T             O7
   12.2422024916997145    2.3265682677026840    0.0000000000000000    T  T  T             O8
   13.8661092642415849    0.0718536171757220    0.0000000000000000    T  T  T             O9
   15.5290962900454375    4.6328305348783294    0.0000000000000000    T  T  T            O10
   17.0655072452389156    2.3668899261650891    0.0000000000000000    T  T  T            O11
   18.7030328171577587    0.1264164948867620    0.0000000000000000    T  T  T            O12
   23.5198461539774470    2.3075356893041281    0.0000000000000000    T  T  T            O13
   25.1058130485670254    4.5921947057168007    0.0000000000000000    T  T  T            O14
   26.6881937919769996    0.0212602494368555    0.0000000000000000    T  T  T            O15
   28.3186655460819310    2.2776750379432991    0.0000000000000000    T  T  T            O16
   29.9485026810031698    4.5186080666856538    0.0000000000000000    T  T  T            O17
   31.5774537575211269    6.7614247111355619    0.0000000000000000    T  T  T            O18
   33.1974151719785908    2.2287562700781134    0.0000000000000000    F  F  F            O19
   34.8285173456122763    4.4750416250658258    0.0000000000000000    F  F  F            O20
   36.4584284164186414    6.7143377595801486    0.0000000000000000    F  F  F            O21
   38.0887179949747434    2.1711602404991939    0.0000000000000000    F  F  F            O22
   39.6625319133668413    4.3984338525742972    0.0000000000000000    F  F  F            O23
   41.2428934610650160    6.6900361516079370    0.0000000000000000    F  F  F            O24
   10.6054049411405789    1.1747718524676090    1.9209516548443859    T  T  T            O25
   23.4986245788656589    5.7199914526766156    1.9209516548443859    T  T  T            O26
   25.1254603126143827    1.1640821947332487    1.9209516548443859    T  T  T            O27
    0.8874655021099220    1.0470285032498499    1.9209516548443859    F  F  F            O28
   26.6600334445149727    3.4308044880513142    1.9209516548443859    T  T  T            O29
   12.2406164250816509    5.7244914027575042    1.9209516548443859    T  T  T            O30
    5.7439645429765021    1.1214962620842817    1.9209516548443859    F  F  F            O31
   28.3267569110137778    5.6640748068523417    1.9209516548443859    T  T  T            O32
   29.9484461862426166    1.1219500798341369    1.9209516548443859    T  T  T            O33
   13.8743351064399825    3.4794271301455879    1.9209516548443859    T  T  T            O34
    7.3658098799400280    5.6677151600823183    1.9209516548443859    F  F  F            O35
   31.5726742588434952    3.3687072905354443    1.9209516548443859    T  T  T            O36
   33.1976331964792237    5.6274882800747772    1.9209516548443859    F  F  F            O37
    4.1097895758633465    3.3673132434264441    1.9209516548443859    F  F  F            O38
   34.8295559747067074    1.0768553807464514    1.9209516548443859    F  F  F            O39
   15.5049953292649789    1.2240397514975321    1.9209516548443859    T  T  T            O40
   36.4529763572774854    3.3261398217717519    1.9209516548443859    F  F  F            O41
   17.0819034538507637    5.7921562400505149    1.9209516548443859    T  T  T            O42
    2.5048781130940991    5.6147458795447802    1.9209516548443859    F  F  F            O43
   38.1159112130990181    5.5591018729039323    1.9209516548443859    F  F  F            O44
   39.6409695215133979    1.0269390323882150    1.9209516548443859    F  F  F            O45
    8.9976992274230447    3.4204018239819134    1.9209516548443859    F  F  F            O46
   18.6828669023199510    3.5089869240472047    1.9209516548443859    T  T  T            O47
   41.2686790335615967    3.2717075472280310    1.9209516548443859    F  F  F            O48
