cif2pos.py
   1.000
   40.3378009073876669    0.0000000000000000    0.0000000000000000
    0.0000000000000000   13.1421435162302842    0.0000000000000000
    0.0000000000000000    0.0000000000000000    3.8761186333578821
   U    O 
   44   88
Selective Dynamics
Cartesian
    0.0000000000000000   12.5551636873405776    0.0000000000000000    F  F  F             U1
    5.4556193949365088   10.7650118679051516    0.0000000000000000    F  F  F             U2
   10.4271076416300943    8.3713522310702473    0.0000000000000000    T  T  T             U3
   15.6087567713152495    5.8965589364340101    0.0000000000000000    T  T  T             U4
    2.2419553594641073    3.5835709747557116    0.0000000000000000    F  F  F             U5
   17.1012588971082486    9.4655748279708298    0.0000000000000000    T  T  T             U6
    3.5869503846652084    7.1643941168445258    0.0000000000000000    F  F  F             U7
    8.7664271818685577    4.7865274781975184    0.0000000000000000    F  F  F             U8
   13.7779261444064041    2.3298132745193127    0.0000000000000000    T  T  T             U9
    7.0388639731293834    1.1886095507572638    0.0000000000000000    F  F  F            U10
   12.1545573263140980   11.9208725278593874    0.0000000000000000    T  T  T            U11
    2.2562447583646623   10.1626129082921235    1.9380593166789410    F  F  F            U12
    7.0515223280739576    7.7723041446955925    1.9380593166789410    F  F  F            U13
   12.1727442593723936    5.3644418339413624    1.9380593166789410    T  T  T            U14
   17.1122243849136169    2.8790618746651191    1.9380593166789410    T  T  T            U15
    3.5588158581234057    0.5837924348378309    1.9380593166789410    F  F  F            U16
   21.4520780201494894    6.9811937927862378    1.9380593166789410    T  T  T            U17
    5.4523417914614560    4.1824315551420614    1.9380593166789410    F  F  F            U18
   10.4338786129349010    1.7908808565653966    1.9380593166789410    T  T  T            U19
   15.5907091898109815   12.5085222668289315    1.9380593166789410    T  T  T            U20
    8.7618697554032465   11.3489733561662280    1.9380593166789410    F  F  F            U21
   13.7696995230313082    8.8897874385665112    1.9380593166789410    T  T  T            U22
   21.4575292814191911    0.3803067944504533    0.0000000000000000    T  T  T            U23
   26.5515672045964628    2.4419839360816900    0.0000000000000000    T  T  T            U24
   31.5713737255191091    4.7865274781975184    0.0000000000000000    F  F  F            U25
   36.7508505227224589    7.1643941168445258    0.0000000000000000    F  F  F            U26
   23.2264455184676564    9.6858300557643542    0.0000000000000000    T  T  T            U27
   38.0958455479235596    3.5835709747557116    0.0000000000000000    F  F  F            U28
   24.7931245982327901    6.0490453628662157    0.0000000000000000    T  T  T            U29
   29.9176774265187007    8.3724413990252700    0.0000000000000000    T  T  T            U30
   34.8821815124511545   10.7650118679051516    0.0000000000000000    F  F  F            U31
   28.2191845752091197   11.9730046285705534    0.0000000000000000    T  T  T            U32
   33.2989369342582862    1.1886095507572638    0.0000000000000000    F  F  F            U33
   23.2231252408405595    3.0762611980956303    1.9380593166789410    T  T  T            U34
   28.1925817804742671    5.4105975525478369    1.9380593166789410    T  T  T            U35
   33.2862785793137093    7.7723041446955925    1.9380593166789410    F  F  F            U36
   38.0815561490230010   10.1626129082921235    1.9380593166789410    F  F  F            U37
   24.8181250554592445   12.6240033221018066    1.9380593166789410    T  T  T            U38
    0.0000000000000000    5.9944984735779778    1.9380593166789410    F  F  F            U39
   26.5428781681126509    9.0111153230836685    1.9380593166789410    T  T  T            U40
   31.5759311519844168   11.3489733561662280    1.9380593166789410    F  F  F            U41
   36.7789850492639658    0.5837924348378309    1.9380593166789410    F  F  F            U42
   29.9233664584659529    1.8016751097623283    1.9380593166789410    T  T  T            U43
   34.8854591159265013    4.1824315551420614    1.9380593166789410    F  F  F            U44
    3.5162105320510375    9.4920583288527851    0.0000000000000000    F  F  F             O1
    8.3415292521059499    7.1700188456869389    0.0000000000000000    F  F  F             O2
   13.3927058246438992    4.7975562371500189    0.0000000000000000    T  T  T             O3
   18.2810909485395854    2.9767905709436104    0.0000000000000000    T  T  T             O4
    4.8437705546807610    0.0208387775919930    0.0000000000000000    F  F  F             O5
    1.3934572286513647    5.9524228916072630    0.0000000000000000    F  F  F             O6
    6.6691481135003210    3.5968748458414410    0.0000000000000000    F  F  F             O7
   11.6785589629952433    1.1665063749400051    0.0000000000000000    T  T  T             O8
   16.6103634287610191   11.5864853433286985    0.0000000000000000    T  T  T             O9
    9.9909503610231010   10.7220244362244710    0.0000000000000000    T  T  T            O10
   14.8092448643365167    8.3633919611132903    0.0000000000000000    T  T  T            O11
    4.1395279350285188   11.3751313849136064    1.9380593166789410    F  F  F            O12
    9.1613690069500553    8.9705719082419773    1.9380593166789410    F  F  F            O13
   14.2706467880953820    6.6153945198497119    1.9380593166789410    T  T  T            O14
    1.2148895111029603    4.0732440723852283    1.9380593166789410    F  F  F            O15
    5.8695471177617877    1.7823318017075982    1.9380593166789410    F  F  F            O16
    2.3065839173731058    7.8405540140919019    1.9380593166789410    F  F  F            O17
    7.4855494254704071    5.3841661512091274    1.9380593166789410    F  F  F            O18
   12.4586698219969580    3.0126594844747716    1.9380593166789410    T  T  T            O19
   17.3073453871048173    0.7998839234069008    1.9380593166789410    T  T  T            O20
   10.8596335737501395   12.5063280192361503    1.9380593166789410    T  T  T            O21
   15.6911572114820821    9.8947722452941971    1.9380593166789410    T  T  T            O22
    1.4279645139502239   12.5018666887138803    1.9380593166789410    F  F  F            O23
    6.6766976425797280   10.1692701388308464    1.9380593166789410    F  F  F            O24
   11.7694120871457493    7.7951614095222883    1.9380593166789410    T  T  T            O25
   16.6306371596235003    5.0462040965371084    1.9380593166789410    T  T  T            O26
    3.5107865472024429    2.9083148184844969    1.9380593166789410    F  F  F            O27
   18.2481363070168570    9.6006229202781324    1.9380593166789410    T  T  T            O28
    4.8682253614092241    6.5819985872445868    1.9380593166789410    F  F  F            O29
    9.9999338330171366    4.1975774644745272    1.9380593166789410    T  T  T            O30
   14.8804197640358655    1.7534610012879241    1.9380593166789410    T  T  T            O31
    8.3252409723062648    0.5679224581755539    1.9380593166789410    F  F  F            O32
   13.3645668858155258   11.2496878652468570    1.9380593166789410    T  T  T            O33
    1.2144482588567003   10.6569643430564263    0.0000000000000000    F  F  F            O34
    5.8680091834137658    8.3510856900881194    0.0000000000000000    F  F  F            O35
   10.8716232193456435    6.0041706387355758    0.0000000000000000    T  T  T            O36
   15.7589372780545016    3.3954337427987062    0.0000000000000000    T  T  T            O37
    2.2525242611071299    1.2574675965506854    0.0000000000000000    F  F  F            O38
   17.2881665431753184    7.4114486783857068    0.0000000000000000    T  T  T            O39
    4.1279198797922714    4.8027393344133209    0.0000000000000000    F  F  F            O40
    9.1634836254952798    2.3833135623170136    0.0000000000000000    F  F  F            O41
   14.2382190635111527   13.0881703107020790    0.0000000000000000    T  T  T            O42
    7.4622789870973909   11.9548851640754883    0.0000000000000000    F  F  F            O43
   12.4861573897443456    9.5336823690977877    0.0000000000000000    T  T  T            O44
   24.4821654049394155    3.6290512878253498    0.0000000000000000    T  T  T            O45
   29.4583715609739656    6.0012361141621708    0.0000000000000000    T  T  T            O46
   34.4697917239738985    8.3510856900881194    0.0000000000000000    F  F  F            O47
   39.1233526485309682   10.6569643430564263    0.0000000000000000    F  F  F            O48
   26.0231395481094836    0.0256697265816206    0.0000000000000000    T  T  T            O49
   22.5352360568628391    7.3578017142993950    0.0000000000000000    T  T  T            O50
   27.7641215442582059    9.5896978986870636    0.0000000000000000    T  T  T            O51
   32.8755219202905664   11.9548851640754883    0.0000000000000000    F  F  F            O52
   38.0852766462808319    1.2574675965506854    0.0000000000000000    F  F  F            O53
   31.1743172818920904    2.3833135623170136    0.0000000000000000    F  F  F            O54
   36.2098810275953937    4.8027393344133209    0.0000000000000000    F  F  F            O55
   25.1797111115549157    1.8035173204490371    1.9380593166789410    T  T  T            O56
   30.3080116716880568    4.1937613452684559    1.9380593166789410    T  T  T            O57
   35.4695755459784365    6.5819985872445868    1.9380593166789410    F  F  F            O58
   21.9934829814852861    9.2104866000600012    1.9380593166789410    T  T  T            O59
   26.9620149683688020   11.4337166698131583    1.9380593166789410    T  T  T            O60
   23.0937411414834592    5.3408725734800582    1.9380593166789410    T  T  T            O61
   28.6361735483966164    7.8111866427521210    1.9380593166789410    T  T  T            O62
   33.6611032648079345   10.1692701388308464    1.9380593166789410    F  F  F            O63
   38.9098363934374447   12.5018666887138803    1.9380593166789410    F  F  F            O64
   32.0125599350816969    0.5679224581755539    1.9380593166789410    F  F  F            O65
   36.8270143601852240    2.9083148184844969    1.9380593166789410    F  F  F            O66
   22.5575324621053745    0.6855818370468112    1.9380593166789410    T  T  T            O67
   27.7734518203252279    2.9857206672280245    1.9380593166789410    T  T  T            O68
   32.8522514819175484    5.3841661512091274    1.9380593166789410    F  F  F            O69
   38.0312169900142649    7.8405540140919019    1.9380593166789410    F  F  F            O70
   24.4762812217073389   10.3506164972848502    1.9380593166789410    T  T  T            O71
   39.1229113962847066    4.0732440723852283    1.9380593166789410    F  F  F            O72
   26.0928915189227837    6.6656427748510279    1.9380593166789410    T  T  T            O73
   31.1764319004373149    8.9705719082419773    1.9380593166789410    F  F  F            O74
   36.1982729723594403   11.3751313849136064    1.9380593166789410    F  F  F            O75
   29.4800438983758610   12.5614334602889031    1.9380593166789410    T  T  T            O76
   34.4682537896258765    1.7823318017075982    1.9380593166789410    F  F  F            O77
   21.9619926567106347    2.5510753076897057    0.0000000000000000    T  T  T            O78
   26.9872835585917343    4.7668371948715063    0.0000000000000000    T  T  T            O79
   31.9962716552814221    7.1700188456869389    0.0000000000000000    F  F  F            O80
   36.8215903753366263    9.4920583288527851    0.0000000000000000    F  F  F            O81
   23.3366181040781377   12.0390761666222854    0.0000000000000000    T  T  T            O82
   38.9443436787363026    5.9524228916072630    0.0000000000000000    F  F  F            O83
   25.1826216096884785    8.5302397708485689    0.0000000000000000    T  T  T            O84
   30.2966219360034437   10.7644842120685453    0.0000000000000000    T  T  T            O85
   35.4940303527069005    0.0208387775919930    0.0000000000000000    F  F  F            O86
   28.6177016805025310    1.2201588920088111    0.0000000000000000    T  T  T            O87
   33.6686527938873468    3.5968748458414410    0.0000000000000000    F  F  F            O88
