cif2pos.py
   1.000
   45.6686756529434632    0.0000000000000000    0.0000000000000000
    0.0000000000000000    6.7963468884617413    0.0000000000000000
    0.0000000000000000    0.0000000000000000    3.8419033096887718
   U    Nd   O 
   23    1   48
Selective Dynamics
Cartesian
    1.6567284686217518    6.7424777399523803    0.0000000000000000    F  F  F             U1
    4.8947051251322033    2.2377087462436038    0.0000000000000000    F  F  F             U2
    8.1418556843136081    4.5295309922287226    0.0000000000000000    F  F  F             U3
   11.3999108106789784    0.0231338556681129    0.0000000000000000    T  T  T             U4
   14.6530950520225609    2.3200333130893633    0.0000000000000000    T  T  T             U5
   17.8730443350168322    4.5938956698713600    0.0000000000000000    T  T  T             U6
   31.0443481574700790    4.5633068876057852    0.0000000000000000    T  T  T             U7
   34.2750007668983301    2.2751163187247343    0.0000000000000000    T  T  T             U8
   37.5164013872887523    6.7876030423739087    0.0000000000000000    F  F  F             U9
   40.7679279738274403    4.4695045091764323    0.0000000000000000    F  F  F            U10
   43.9753634877339366    2.1729731768698324    0.0000000000000000    F  F  F            U11
    1.6574185290535466    3.3442666325340840    1.9209516548443859    F  F  F            U12
   27.8276175974824760    3.4244631527984142    1.9209516548443859    T  T  T            U13
   31.0011396757853923    1.1690831073841230    1.9209516548443859    T  T  T            U14
   11.3975119732743657    3.4217037658963250    1.9209516548443859    T  T  T            U15
    4.8941336253382852    5.6360909281144265    1.9209516548443859    F  F  F            U16
   34.2746889689936367    5.6824441060686182    1.9209516548443859    T  T  T            U17
   14.6582321049173441    5.7128262132376681    1.9209516548443859    T  T  T            U18
   37.5108289445772414    3.3895322968681780    1.9209516548443859    F  F  F            U19
    8.1434232869978835    1.1303576986414317    1.9209516548443859    F  F  F            U20
   40.7692390428325879    1.0721251852441771    1.9209516548443859    F  F  F            U21
   17.8626849749566112    1.1987264307503835    1.9209516548443859    T  T  T            U22
   43.9744243196097315    5.5708437962460584    1.9209516548443859    F  F  F            U23
   27.8127506106778384    6.7764273779665292    0.0000000000000000    T  T  T            Nd1
    0.8772368953824258    4.4514174405942022    0.0000000000000000    F  F  F             O1
    2.4891254630326842    2.2176594374174421    0.0000000000000000    F  F  F             O2
    4.0969544413615884    6.7623490519017615    0.0000000000000000    F  F  F             O3
    5.7277203279173410    4.5136492712593279    0.0000000000000000    F  F  F             O4
    7.3468045519467520    2.2575055749182256    0.0000000000000000    F  F  F             O5
    8.9765718581749923    0.0070280468307080    0.0000000000000000    F  F  F             O6
   10.5853729832610881    4.5487641751055801    0.0000000000000000    T  T  T             O7
   12.2181662737502528    2.2958771375675422    0.0000000000000000    T  T  T             O8
   13.8492708759684753    0.0501434384845980    0.0000000000000000    T  T  T             O9
   15.4787061453610786    4.5876492105986824    0.0000000000000000    T  T  T            O10
   17.0573279959999020    2.3576335254699803    0.0000000000000000    T  T  T            O11
   18.6538932635217947    0.0726970835508928    0.0000000000000000    T  T  T            O12
   26.9589012402656110    2.5311296138089872    0.0000000000000000    T  T  T            O13
   28.7095892382782019    4.4604973571136179    0.0000000000000000    T  T  T            O14
   30.1887110387710322    0.0306108518472989    0.0000000000000000    T  T  T            O15
   31.8314177017276911    2.2861644925213147    0.0000000000000000    T  T  T            O16
   33.4704372537666828    4.5532659133243527    0.0000000000000000    T  T  T            O17
   35.0936254789873558    0.0026583046188747    0.0000000000000000    T  T  T            O18
   36.7139469297577605    2.2667563953492809    0.0000000000000000    F  F  F            O19
   38.3470786732231872    4.5102682465768087    0.0000000000000000    F  F  F            O20
   39.9728549722829527    6.7453504369780051    0.0000000000000000    F  F  F            O21
   41.6182692338084834    2.1891546081282538    0.0000000000000000    F  F  F            O22
   43.1631118469446236    4.4299322426600654    0.0000000000000000    F  F  F            O23
   44.7571815119350163    6.6863960192407683    0.0000000000000000    F  F  F            O24
   10.5858135312546846    1.1491000411091150    1.9209516548443859    T  T  T            O25
   27.0633668086773653    5.4294377482465057    1.9209516548443859    T  T  T            O26
   28.5587964019458838    1.2973448849475950    1.9209516548443859    T  T  T            O27
    0.8760881045913377    1.0543836263838127    1.9209516548443859    F  F  F            O28
   30.2145902892600624    3.4316087986144037    1.9209516548443859    T  T  T            O29
   12.2202796705153869    5.6926955253075739    1.9209516548443859    T  T  T            O30
    5.7281351097975994    1.1156129177822960    1.9209516548443859    F  F  F            O31
   31.8611377381126708    5.7175279105372665    1.9209516548443859    T  T  T            O32
   33.4624582575016234    1.1602798114888750    1.9209516548443859    T  T  T            O33
   13.8442267030339821    3.4368439137307218    1.9209516548443859    T  T  T            O34
    7.3457248057976408    5.6552727609153361    1.9209516548443859    F  F  F            O35
   35.0925510331214099    3.3986096991814789    1.9209516548443859    T  T  T            O36
   36.7192540027425025    5.6672149207973161    1.9209516548443859    F  F  F            O37
    4.0970943535124071    3.3646240940204297    1.9209516548443859    F  F  F            O38
   38.3478645081965226    1.1103403505926746    1.9209516548443859    F  F  F            O39
   15.5056990855204226    1.1978464160102318    1.9209516548443859    T  T  T            O40
   39.9729163691854907    3.3464305370631529    1.9209516548443859    F  F  F            O41
   17.0412775247026929    5.7269654122819809    1.9209516548443859    T  T  T            O42
    2.4881483209233091    5.6162416723327020    1.9209516548443859    F  F  F            O43
   41.6178546313511788    5.5875427636748602    1.9209516548443859    F  F  F            O44
   43.1640535609271438    1.0323322356642102    1.9209516548443859    F  F  F            O45
    8.9772183750818542    3.4064774175835035    1.9209516548443859    F  F  F            O46
   18.6779342915588984    3.4850527884804339    1.9209516548443859    T  T  T            O47
   44.7573067434404948    3.2893811621599389    1.9209516548443859    F  F  F            O48
