cif2pos.py
   1.000
   42.3378009073876669    0.0000000000000000    0.0000000000000000
    0.0000000000000000   13.1421435162302842    0.0000000000000000
    0.0000000000000000    0.0000000000000000    3.8761186333578821
   U    Zr   O 
   43    1   88
Selective Dynamics
Cartesian
    0.0000050844320767   12.5279106279087689    0.0000000000000000    F  F  F             U1
    5.4705379201164437   10.7412242862561467    0.0000000000000000    F  F  F             U2
   10.4110519521911637    8.3492013831711009    0.0000000000000000    T  T  T             U3
   15.5930131339572728    5.9967397386312102    0.0000000000000000    T  T  T             U4
    2.2655943442674058    3.5649867510904980    0.0000000000000000    F  F  F             U5
    3.6189034629404264    7.1403598943293627    0.0000000000000000    F  F  F             U6
    8.7888076254628302    4.7651093513480340    0.0000000000000000    F  F  F             U7
   13.7514230885570203    2.3536950961762440    0.0000000000000000    T  T  T             U8
    7.0515980971819481    1.1731255910600911    0.0000000000000000    F  F  F             U9
   12.1190709319528356   11.9349071997146154    0.0000000000000000    T  T  T            U10
    2.2715525036702289   10.1354387806924873    1.9380593166789410    F  F  F            U11
    7.0661304051373888    7.7406275757446661    1.9380593166789410    F  F  F            U12
   12.1429960727309787    5.3686835679852809    1.9380593166789410    T  T  T            U13
   16.9294706560761874    2.9750501705894656    1.9380593166789410    T  T  T            U14
    3.5966567824936044    0.5800088355433599    1.9380593166789410    F  F  F            U15
   19.0761458275502243    7.3206296004725928    1.9380593166789410    T  T  T            U16
    5.4738057851156521    4.1647856396541769    1.9380593166789410    F  F  F            U17
   10.4222701760913452    1.7691384496896190    1.9380593166789410    T  T  T            U18
   15.6421647983581824   12.4482325486468763    1.9380593166789410    T  T  T            U19
    8.7682749729855605   11.3369830642293028    1.9380593166789410    F  F  F            U20
   13.7038828367589627    8.9606430199296305    1.9380593166789410    T  T  T            U21
   19.2415518201434494    0.5635215902031316    0.0000000000000000    T  T  T            U22
   28.6313129257792838    2.4246712009192177    0.0000000000000000    T  T  T            U23
   33.5716877377859859    4.7897285610512776    0.0000000000000000    F  F  F            U24
   38.7469210006551563    7.1547748175007575    0.0000000000000000    F  F  F            U25
   25.3718196273198373    9.6217838506313633    0.0000000000000000    T  T  T            U26
   40.0847957607031518    3.5769768870970378    0.0000000000000000    F  F  F            U27
   26.7627696491202940    6.0196131172981300    0.0000000000000000    T  T  T            U28
   31.9337669325496982    8.3696531331877750    0.0000000000000000    T  T  T            U29
   36.8784867110120516   10.7524553457839005    0.0000000000000000    F  F  F            U30
   30.2047315498481872   11.9735091250751431    0.0000000000000000    T  T  T            U31
   35.2882527294370121    1.1899385706732304    0.0000000000000000    F  F  F            U32
   25.4291983107278732    3.0297079542684804    1.9380593166789410    T  T  T            U33
   30.2156668358643010    5.4155642290414621    1.9380593166789410    T  T  T            U34
   35.2908210816069356    7.7627668867562738    1.9380593166789410    F  F  F            U35
   40.0800656973458871   10.1439217181261352    1.9380593166789410    F  F  F            U36
   26.7684081094175959   12.5850575767596151    1.9380593166789410    T  T  T            U37
    0.0263932514241286    5.9634714187662299    1.9380593166789410    F  F  F            U38
   28.6030745341795694    8.9844717872491771    1.9380593166789410    T  T  T            U39
   33.5651960874400928   11.3602584026562194    1.9380593166789410    F  F  F            U40
   38.7465133210322676    0.5830673437453431    1.9380593166789410    F  F  F            U41
   31.9347383410664740    1.8024325913914985    1.9380593166789410    T  T  T            U42
   36.8812383317250934    4.1797492264592568    1.9380593166789410    F  F  F            U43
   16.8011685623061133    9.4923574168867688    0.0000000000000000    T  T  T            Zr1
    3.5495327246351205    9.4700928400732280    0.0000000000000000    F  F  F             O1
    8.3644950202220905    7.1417340134669143    0.0000000000000000    F  F  F             O2
   13.3280911445946231    4.7922075293598514    0.0000000000000000    T  T  T             O3
   17.9104502975693833    2.4088308010332669    0.0000000000000000    T  T  T             O4
    4.8736896209160303    0.0214578786799492    0.0000000000000000    F  F  F             O5
    1.4252220378098801    5.9244123977131711    0.0000000000000000    F  F  F             O6
    6.6938245820033515    3.5722899440430629    0.0000000000000000    F  F  F             O7
   11.7179555650097296    1.1701329184509921    0.0000000000000000    T  T  T             O8
   16.8921408885903048   11.6077482214388130    0.0000000000000000    T  T  T             O9
   10.0072736447706081   10.7357355355904271    0.0000000000000000    T  T  T            O10
   15.0796021134843592    8.3741915872081467    0.0000000000000000    T  T  T            O11
    4.1431300867217944   11.3757071197256945    1.9380593166789410    F  F  F            O12
    9.1600630415040509    8.9643009736249990    1.9380593166789410    F  F  F            O13
   14.3166694783132264    6.5746398906160630    1.9380593166789410    T  T  T            O14
    1.2096100433654400    4.0467690475697191    1.9380593166789410    F  F  F            O15
    5.8764313718725401    1.7658580920852962    1.9380593166789410    F  F  F            O16
    2.3433916842946383    7.8138376684833464    1.9380593166789410    F  F  F            O17
    7.5080750630325639    5.3597028080334868    1.9380593166789410    F  F  F            O18
   12.5304062805928567    2.9595793236905665    1.9380593166789410    T  T  T            O19
   17.8164773799819685    0.5150954561416458    1.9380593166789410    T  T  T            O20
   10.8150945962163583   12.5475492173694985    1.9380593166789410    T  T  T            O21
   15.5728837967550646   10.2015084005507379    1.9380593166789410    T  T  T            O22
    1.3953543151176577   12.4930946668647227    1.9380593166789410    F  F  F            O23
    6.6610334490463607   10.1393559707753234    1.9380593166789410    F  F  F            O24
   11.6950748655055374    7.7451893283363207    1.9380593166789410    T  T  T            O25
   16.8941714169161976    5.3347542951723845    1.9380593166789410    T  T  T            O26
    3.5249049105717525    2.9082171948252018    1.9380593166789410    F  F  F            O27
   17.7312618709527854    9.1264459603217798    1.9380593166789410    T  T  T            O28
    4.8919004510460011    6.5449613917884095    1.9380593166789410    F  F  F            O29
   10.0243636781491805    4.1676702724412733    1.9380593166789410    T  T  T            O30
   15.0681423659336051    1.7517224144919314    1.9380593166789410    T  T  T            O31
    8.3303643713698907    0.5545631072539190    1.9380593166789410    F  F  F            O32
   13.2521341225861313   11.3582194037124182    1.9380593166789410    T  T  T            O33
    1.2436115084638264   10.6185047063586389    0.0000000000000000    F  F  F            O34
    5.8867296579527677    8.2931009826507367    0.0000000000000000    F  F  F            O35
   10.8582335388091824    5.9806324526226158    0.0000000000000000    T  T  T            O36
   15.6772031581827260    3.6707454966674646    0.0000000000000000    T  T  T            O37
    2.3165539343604378    1.2508844023467842    0.0000000000000000    F  F  F            O38
   17.7017244614244582    7.3526589431922131    0.0000000000000000    T  T  T            O39
    4.1512010866590732    4.7782550946722377    0.0000000000000000    F  F  F            O40
    9.1915429368711692    2.3586694199436269    0.0000000000000000    F  F  F            O41
   14.3695376771901753   13.0850982280477321    0.0000000000000000    T  T  T            O42
    7.4651545221902627   11.9290534609279142    0.0000000000000000    F  F  F            O43
   12.4879810793986064    9.5310996367776273    0.0000000000000000    T  T  T            O44
   26.6937592533015007    3.6791694446140633    0.0000000000000000    T  T  T            O45
   31.5095309639422858    6.0067363540277574    0.0000000000000000    T  T  T            O46
   36.4738376493374616    8.3434909119802416    0.0000000000000000    F  F  F            O47
   41.1356515641927984   10.6185936249559649    0.0000000000000000    F  F  F            O48
   28.0337143483294220   13.1418473070934159    0.0000000000000000    T  T  T            O49
   24.5178041520474537    7.3115928815182150    0.0000000000000000    T  T  T            O50
   29.8149463609284346    9.5679655896503579    0.0000000000000000    T  T  T            O51
   34.8461488047286068   11.9479500061037722    0.0000000000000000    F  F  F            O52
   40.0161990370148715    1.2519979270840358    0.0000000000000000    F  F  F            O53
   33.1645580001380651    2.3888093779961004    0.0000000000000000    F  F  F            O54
   38.2064289056856907    4.7998537342835137    0.0000000000000000    F  F  F            O55
   27.3153657507034957    1.7958856933572140    1.9380593166789410    T  T  T            O56
   32.3339144407084049    4.1931679287855355    1.9380593166789410    T  T  T            O57
   37.4569540812023760    6.5687430675223082    1.9380593166789410    F  F  F            O58
   24.2526245335623294    9.2390863242244823    1.9380593166789410    T  T  T            O59
   29.0238771325307319   11.4039993677157483    1.9380593166789410    T  T  T            O60
   25.5253634280924793    5.3433374655436721    1.9380593166789410    T  T  T            O61
   30.6547455155026292    7.7817733881102615    1.9380593166789410    T  T  T            O62
   35.6619305147827532   10.1600767345585421    1.9380593166789410    F  F  F            O63
   40.9290914927719456   12.4998324222144461    1.9380593166789410    F  F  F            O64
   34.0007860375152404    0.5871049379430535    1.9380593166789410    F  F  F            O65
   38.8119074159514810    2.9076610844273625    1.9380593166789410    F  F  F            O66
   24.6209012984063591    0.6755428291402853    1.9380593166789410    T  T  T            O67
   29.8269874322353949    3.0223598519397830    1.9380593166789410    T  T  T            O68
   34.8523390907190844    5.3770819889585280    1.9380593166789410    F  F  F            O69
   39.9985246853060517    7.8288679361087876    1.9380593166789410    F  F  F            O70
   26.6479173486689476   10.2592734747687260    1.9380593166789410    T  T  T            O71
   41.1038327589339758    4.0715961693328770    1.9380593166789410    F  F  F            O72
   28.0420389640511658    6.6005083676514147    1.9380593166789410    T  T  T            O73
   33.1685220425175444    8.9651530676568001    1.9380593166789410    F  F  F            O74
   38.2007255316768735   11.3671361004863858    1.9380593166789410    F  F  F            O75
   31.4933024228371288   12.5808328357212496    1.9380593166789410    T  T  T            O76
   36.4662474276878967    1.7683246413145379    1.9380593166789410    F  F  F            O77
   24.3634781529406794    2.5448848898366587    0.0000000000000000    T  T  T            O78
   29.0310109084573895    4.8595892667001745    0.0000000000000000    T  T  T            O79
   34.0091148895521442    7.1604712842857081    0.0000000000000000    F  F  F            O80
   38.8178829618602848    9.4878060185127158    0.0000000000000000    F  F  F            O81
   25.4445394660069297   11.9406262522189817    0.0000000000000000    T  T  T            O82
   40.9588381702826254    5.9444096738610561    0.0000000000000000    F  F  F            O83
   27.2775148324819341    8.3836313746822224    0.0000000000000000    T  T  T            O84
   32.3201826011780327   10.7692156334245457    0.0000000000000000    T  T  T            O85
   37.4577042716138280   13.1408092864135373    0.0000000000000000    F  F  F            O86
   30.6361413100968107    1.2214279355923059    0.0000000000000000    T  T  T            O87
   35.6656678222595147    3.5860448535368183    0.0000000000000000    F  F  F            O88
