cif2pos.py
   1.000
   40.6686756529434632    0.0000000000000000    0.0000000000000000
    0.0000000000000000    6.7963468884617413    0.0000000000000000
    0.0000000000000000    0.0000000000000000    3.8419033096887718
   U    Nd   O 
   23    1   48
Selective Dynamics
Cartesian
    1.6567284686217196    6.7424777399523803    0.0000000000000000    F  F  F             U1
    4.8947051251320834    2.2377087462436038    0.0000000000000000    F  F  F             U2
    8.1418556843134731    4.5295309922287226    0.0000000000000000    F  F  F             U3
   11.3956633911664937    0.0255822451963976    0.0000000000000000    T  T  T             U4
   14.6407318902143349    2.3031611349368832    0.0000000000000000    T  T  T             U5
   17.8934851165673905    4.5548732603109343    0.0000000000000000    T  T  T             U6
   26.0301182041556736    4.5895537808210172    0.0000000000000000    T  T  T             U7
   29.2593840785837003    2.2863705818194107    0.0000000000000000    T  T  T             U8
   32.5164013872887452    6.7876030423739087    0.0000000000000000    F  F  F             U9
   35.7679279738275966    4.4695045091764323    0.0000000000000000    F  F  F            U10
   38.9753634877339934    2.1729731768698324    0.0000000000000000    F  F  F            U11
    1.6574185290534296    3.3442666325340840    1.9209516548443859    F  F  F            U12
   22.7951896897709112    3.4675180195207433    1.9209516548443859    T  T  T            U13
   25.9977197749938256    1.1868668676321910    1.9209516548443859    T  T  T            U14
   11.3897175380319826    3.4243926295529143    1.9209516548443859    T  T  T            U15
    4.8941336253383785    5.6360909281144265    1.9209516548443859    F  F  F            U16
   29.2683094014665990    5.6890504834345936    1.9209516548443859    T  T  T            U17
   14.6490147023476673    5.6972859808982301    1.9209516548443859    T  T  T            U18
   32.5108289445772414    3.3895322968681780    1.9209516548443859    F  F  F            U19
    8.1434232869977752    1.1303576986414317    1.9209516548443859    F  F  F            U20
   35.7692390428325950    1.0721251852441771    1.9209516548443859    F  F  F            U21
   17.8296943359022109    1.1821574702861875    1.9209516548443859    T  T  T            U22
   38.9744243196095752    5.5708437962460584    1.9209516548443859    F  F  F            U23
   22.7450488439914977    0.0206237482388496    0.0000000000000000    T  T  T            Nd1
    0.8772368953823576    4.4514174405942022    0.0000000000000000    F  F  F             O1
    2.4891254630325346    2.2176594374174421    0.0000000000000000    F  F  F             O2
    4.0969544413615004    6.7623490519017615    0.0000000000000000    F  F  F             O3
    5.7277203279172326    4.5136492712593279    0.0000000000000000    F  F  F             O4
    7.3468045519467378    2.2575055749182256    0.0000000000000000    F  F  F             O5
    8.9765718581750846    0.0070280468307080    0.0000000000000000    F  F  F             O6
   10.5950762191677246    4.5506472480575377    0.0000000000000000    T  T  T             O7
   12.2201272543353578    2.3017822418944363    0.0000000000000000    T  T  T             O8
   13.8397560544323568    0.0361759643863349    0.0000000000000000    T  T  T             O9
   15.5351565785141705    4.5639051020467365    0.0000000000000000    T  T  T            O10
   17.0178690180311989    2.2816039377810395    0.0000000000000000    T  T  T            O11
   18.7344827065317645    0.0926455205230999    0.0000000000000000    T  T  T            O12
   21.9096301392616652    2.6272667180596576    0.0000000000000000    T  T  T            O13
   23.6870179495155071    4.5218243621191991    0.0000000000000000    T  T  T            O14
   25.2083697772444459    0.0741900185905962    0.0000000000000000    T  T  T            O15
   26.8507557481574963    2.3019959419519180    0.0000000000000000    T  T  T            O16
   28.4852664088999887    4.5561407256118622    0.0000000000000000    T  T  T            O17
   30.0923339473010998    0.0204072215311708    0.0000000000000000    T  T  T            O18
   31.7139469297575971    2.2667563953492809    0.0000000000000000    F  F  F            O19
   33.3470786732232725    4.5102682465768087    0.0000000000000000    F  F  F            O20
   34.9728549722830664    6.7453504369780051    0.0000000000000000    F  F  F            O21
   36.6182692338084124    2.1891546081282538    0.0000000000000000    F  F  F            O22
   38.1631118469447230    4.4299322426600654    0.0000000000000000    F  F  F            O23
   39.7571815119349665    6.6863960192407683    0.0000000000000000    F  F  F            O24
   10.5954448647423369    1.1534894459885185    1.9209516548443859    T  T  T            O25
   22.0128237338050106    5.4599373412025551    1.9209516548443859    T  T  T            O26
   23.4899385061357897    1.3444538716791206    1.9209516548443859    T  T  T            O27
    0.8760881045912140    1.0543836263838127    1.9209516548443859    F  F  F            O28
   25.2216267233041194    3.4600355648138681    1.9209516548443859    T  T  T            O29
   12.2292925022775645    5.7005368878095650    1.9209516548443859    T  T  T            O30
    5.7281351097977256    1.1156129177822960    1.9209516548443859    F  F  F            O31
   26.8500430728392487    5.7094834801407677    1.9209516548443859    T  T  T            O32
   28.4453961142761145    1.1512024360562958    1.9209516548443859    T  T  T            O33
   13.8587163649230316    3.4473559543526235    1.9209516548443859    T  T  T            O34
    7.3457248057977136    5.6552727609153361    1.9209516548443859    F  F  F            O35
   30.1084479098919537    3.4203023602210951    1.9209516548443859    T  T  T            O36
   31.7192540027424279    5.6672149207973161    1.9209516548443859    F  F  F            O37
    4.0970943535122926    3.3646240940204297    1.9209516548443859    F  F  F            O38
   33.3478645081964160    1.1103403505926746    1.9209516548443859    F  F  F            O39
   15.4592066627170084    1.1646746486098039    1.9209516548443859    T  T  T            O40
   34.9729163691854978    3.3464305370631529    1.9209516548443859    F  F  F            O41
   17.0756969229295876    5.7324722413202824    1.9209516548443859    T  T  T            O42
    2.4881483209232491    5.6162416723327020    1.9209516548443859    F  F  F            O43
   36.6178546313511362    5.5875427636748602    1.9209516548443859    F  F  F            O44
   38.1640535609271083    1.0323322356642102    1.9209516548443859    F  F  F            O45
    8.9772183750819590    3.4064774175835035    1.9209516548443859    F  F  F            O46
   18.5751192423216267    3.4057581272804534    1.9209516548443859    T  T  T            O47
   39.7573067434406013    3.2893811621599389    1.9209516548443859    F  F  F            O48
