cif2pos.py
   1.000
   44.6686756529434632    0.0000000000000000    0.0000000000000000
    0.0000000000000000    6.7963468884617413    0.0000000000000000
    0.0000000000000000    0.0000000000000000    3.8419033096887718
   U    Zr   O 
   23    1   48
Selective Dynamics
Cartesian
    1.6766700050639181    6.7396662903317672    0.0000000000000000    F  F  F             U1
    4.9254246181260619    2.2348990207365427    0.0000000000000000    F  F  F             U2
    8.1954796056990151    4.5249702400376215    0.0000000000000000    F  F  F             U3
   11.4504770034487748    0.0128507194124384    0.0000000000000000    T  T  T             U4
   14.7169112827396695    2.3054399812857995    0.0000000000000000    T  T  T             U5
   17.9209686560827208    4.5910012152748756    0.0000000000000000    T  T  T             U6
   29.9221896125116054    4.5653226600340533    0.0000000000000000    T  T  T             U7
   33.1837007524392931    2.2939524126994431    0.0000000000000000    T  T  T             U8
   36.4389834758973805    0.0034115683682511    0.0000000000000000    F  F  F             U9
   39.7055693486620811    4.4759683331192059    0.0000000000000000    F  F  F            U10
   42.9351780227626136    2.1731554355732974    0.0000000000000000    F  F  F            U11
    1.6657649129754835    3.3430012386500936    1.9209516548443859    F  F  F            U12
   26.7935196409891354    3.3289197093636118    1.9209516548443859    T  T  T            U13
   29.9534316954573292    1.1632204325133304    1.9209516548443859    T  T  T            U14
   11.4573403119211523    3.4121872287539055    1.9209516548443859    T  T  T            U15
    4.9277997248356771    5.6314053602819145    1.9209516548443859    F  F  F            U16
   33.1880325308431949    5.6879715769915542    1.9209516548443859    T  T  T            U17
   14.7106421996109926    5.7099693281802413    1.9209516548443859    T  T  T            U18
   36.4317212451582009    3.4032240753680552    1.9209516548443859    F  F  F            U19
    8.1918134701031367    1.1284783790481530    1.9209516548443859    F  F  F            U20
   39.7082527450309755    1.0830085474584679    1.9209516548443859    F  F  F            U21
   17.9324289665681071    1.1894666066400632    1.9209516548443859    T  T  T            U22
   42.9323466514632273    5.5732689589789794    1.9209516548443859    F  F  F            U23
   26.9003250655918258    0.0352635295629861    0.0000000000000000    T  T  T            Zr1
    0.8873101287154646    4.4585732608847319    0.0000000000000000    F  F  F             O1
    2.5072024030544080    2.2190857681958684    0.0000000000000000    F  F  F             O2
    4.1225649785645579    6.7607650334689913    0.0000000000000000    F  F  F             O3
    5.7681558352429256    4.5100793177868290    0.0000000000000000    F  F  F             O4
    7.3920740981838211    2.2537636686038702    0.0000000000000000    F  F  F             O5
    9.0341565657243841    0.0054397827352461    0.0000000000000000    F  F  F             O6
   10.6421010360395289    4.5377956731428783    0.0000000000000000    T  T  T             O7
   12.2789267402771838    2.2868664201535793    0.0000000000000000    T  T  T             O8
   13.9009461802810215    0.0312325618062303    0.0000000000000000    T  T  T             O9
   15.5640384067059063    4.5885765187813616    0.0000000000000000    T  T  T            O10
   17.1011404935493978    2.3229054009995647    0.0000000000000000    T  T  T            O11
   18.7369879692998822    0.0821263907643703    0.0000000000000000    T  T  T            O12
   26.0760052646638307    2.0514888319303202    0.0000000000000000    T  T  T            O13
   27.4862339273772989    4.4879671477837597    0.0000000000000000    T  T  T            O14
   29.0232686236225206    6.7581656310617344    0.0000000000000000    T  T  T            O15
   30.7650855137764516    2.2814471818890651    0.0000000000000000    T  T  T            O16
   32.3772826589861396    4.5553774582353350    0.0000000000000000    T  T  T            O17
   34.0003930483849359    0.0190726001760096    0.0000000000000000    T  T  T            O18
   35.6275748888555626    2.2785640214872336    0.0000000000000000    F  F  F            O19
   37.2742631047485133    4.5183174212123776    0.0000000000000000    F  F  F            O20
   38.9088366584366980    6.7489754272900768    0.0000000000000000    F  F  F            O21
   40.5481875355082124    2.2006170557563149    0.0000000000000000    F  F  F            O22
   42.1283670196088949    4.4204335233578620    0.0000000000000000    F  F  F            O23
   43.7194738160885450    6.7074025574918572    0.0000000000000000    F  F  F            O24
   10.6386231047953856    1.1367281116471670    1.9209516548443859    T  T  T            O25
   26.2352955918308446    5.9741986618463372    1.9209516548443859    T  T  T            O26
   27.7259660878982004    1.2533930140750662    1.9209516548443859    T  T  T            O27
    0.8939682245925449    1.0449996631738878    1.9209516548443859    F  F  F            O28
   29.1563702386512524    3.4664357010213935    1.9209516548443859    T  T  T            O29
   12.2780729524734795    5.6828379502849939    1.9209516548443859    T  T  T            O30
    5.7668189960800342    1.1101394718850419    1.9209516548443859    F  F  F            O31
   30.7534780523548932    5.7144231926221298    1.9209516548443859    T  T  T            O32
   32.3779853920322367    1.1574234541665778    1.9209516548443859    T  T  T            O33
   13.9092534093238029    3.4382271638235693    1.9209516548443859    T  T  T            O34
    7.3943885640652631    5.6520255867703071    1.9209516548443859    F  F  F            O35
   34.0184461237504578    3.4354411153428779    1.9209516548443859    T  T  T            O36
   35.6410167909342732    5.6839026050947288    1.9209516548443859    F  F  F            O37
    4.1240815052170117    3.3604164289257441    1.9209516548443859    F  F  F            O38
   37.2767924934717172    1.1239647602693137    1.9209516548443859    F  F  F            O39
   15.5392063835007725    1.1799466787947694    1.9209516548443859    T  T  T            O40
   38.9055444924797484    3.3624226908378625    1.9209516548443859    F  F  F            O41
   17.1171480156436289    5.7498573882117254    1.9209516548443859    T  T  T            O42
    2.5148612764095151    5.6110101717412872    1.9209516548443859    F  F  F            O43
   40.5742155752049811    5.5919984004660526    1.9209516548443859    F  F  F            O44
   42.1069428672694883    1.0499367318135790    1.9209516548443859    F  F  F            O45
    9.0341955664876004    3.4028848170673669    1.9209516548443859    F  F  F            O46
   18.7158553500737135    3.4666706082661007    1.9209516548443859    T  T  T            O47
   43.7469244847763505    3.2882416522030233    1.9209516548443859    F  F  F            O48
