cif2pos.py
   1.000
   46.1686756529434632    0.0000000000000000    0.0000000000000000
    0.0000000000000000    6.7963468884617413    0.0000000000000000
    0.0000000000000000    0.0000000000000000    3.8419033096887718
   U    Zr   O 
   23    1   48
Selective Dynamics
Cartesian
    1.6766700050639871    6.7396662903317672    0.0000000000000000    F  F  F             U1
    4.9254246181261943    2.2348990207365427    0.0000000000000000    F  F  F             U2
    8.1954796056988624    4.5249702400376215    0.0000000000000000    F  F  F             U3
   11.4555308375831117    0.0229195668663581    0.0000000000000000    T  T  T             U4
   14.7415765757504005    2.2843614636434895    0.0000000000000000    T  T  T             U5
   17.9025731016489651    4.5762696578843229    0.0000000000000000    T  T  T             U6
   31.4076163737362712    4.6014693373944757    0.0000000000000000    T  T  T             U7
   34.6658323584187684    2.3090233788745063    0.0000000000000000    T  T  T             U8
   37.9389834758972384    0.0034115683682511    0.0000000000000000    F  F  F             U9
   41.2055693486620385    4.4759683331192059    0.0000000000000000    F  F  F            U10
   44.4351780227625497    2.1731554355732974    0.0000000000000000    F  F  F            U11
    1.6657649129755325    3.3430012386500936    1.9209516548443859    F  F  F            U12
   28.2367540491697042    3.3799763659147763    1.9209516548443859    T  T  T            U13
   31.4160699493269462    1.1947408832905058    1.9209516548443859    T  T  T            U14
   11.4674818536541903    3.4179167857595645    1.9209516548443859    T  T  T            U15
    4.9277997248358245    5.6314053602819145    1.9209516548443859    F  F  F            U16
   34.6733149426711691    5.7088024319955695    1.9209516548443859    T  T  T            U17
   14.7184516069597837    5.6961821085119517    1.9209516548443859    T  T  T            U18
   37.9317212451583430    3.4032240753680552    1.9209516548443859    F  F  F            U19
    8.1918134701030869    1.1284783790481530    1.9209516548443859    F  F  F            U20
   41.2082527450310749    1.0830085474584679    1.9209516548443859    F  F  F            U21
   18.0286204632678562    1.1284338967863001    1.9209516548443859    T  T  T            U22
   44.4323466514632344    5.5732689589789794    1.9209516548443859    F  F  F            U23
   28.3145463075452710    0.0710262724804331    0.0000000000000000    T  T  T            Zr1
    0.8873101287153792    4.4585732608847319    0.0000000000000000    F  F  F             O1
    2.5072024030544089    2.2190857681958684    0.0000000000000000    F  F  F             O2
    4.1225649785647009    6.7607650334689913    0.0000000000000000    F  F  F             O3
    5.7681558352429967    4.5100793177868290    0.0000000000000000    F  F  F             O4
    7.3920740981837980    2.2537636686038702    0.0000000000000000    F  F  F             O5
    9.0341565657243432    0.0054397827352461    0.0000000000000000    F  F  F             O6
   10.6624272466341594    4.5463242590343009    0.0000000000000000    T  T  T             O7
   12.3054742272025894    2.2938313536486299    0.0000000000000000    T  T  T             O8
   13.9398122652059762    0.0395530329008895    0.0000000000000000    T  T  T             O9
   15.5442142962863805    4.5505273423557373    0.0000000000000000    T  T  T            O10
   17.1930916652011163    2.3048985373531568    0.0000000000000000    T  T  T            O11
   18.6932048626347580    6.7438478937451611    0.0000000000000000    T  T  T            O12
   27.4644939815296034    2.0412288728658363    0.0000000000000000    T  T  T            O13
   28.9068794866133381    4.5156747098695220    0.0000000000000000    T  T  T            O14
   30.4824946255374982    6.7755626093483245    0.0000000000000000    T  T  T            O15
   32.2509352266176350    2.2913273332006883    0.0000000000000000    T  T  T            O16
   33.8568633564010568    4.5758551547515278    0.0000000000000000    T  T  T            O17
   35.5029318419487652    0.0269746555074366    0.0000000000000000    T  T  T            O18
   37.1275748888555697    2.2785640214872336    0.0000000000000000    F  F  F            O19
   38.7742631047485702    4.5183174212123776    0.0000000000000000    F  F  F            O20
   40.4088366584367691    6.7489754272900768    0.0000000000000000    F  F  F            O21
   42.0481875355081200    2.2006170557563149    0.0000000000000000    F  F  F            O22
   43.6283670196090370    4.4204335233578620    0.0000000000000000    F  F  F            O23
   45.2194738160884526    6.7074025574918572    0.0000000000000000    F  F  F            O24
   10.6576204292587828    1.1493494591204647    1.9209516548443859    T  T  T            O25
   27.6602502208312906    6.0564386725455037    1.9209516548443859    T  T  T            O26
   29.1798743588855132    1.2996012595410031    1.9209516548443859    T  T  T            O27
    0.8939682245925717    1.0449996631738878    1.9209516548443859    F  F  F            O28
   30.6791018293755258    3.5014936531999470    1.9209516548443859    T  T  T            O29
   12.2952050091394458    5.6991794208459172    1.9209516548443859    T  T  T            O30
    5.7668189960799445    1.1101394718850419    1.9209516548443859    F  F  F            O31
   32.2503814605211900    5.7674511215818729    1.9209516548443859    T  T  T            O32
   33.8819840515337489    1.1815619540323341    1.9209516548443859    T  T  T            O33
   13.9215633598604089    3.4265837568469526    1.9209516548443859    T  T  T            O34
    7.3943885640651308    5.6520255867703071    1.9209516548443859    F  F  F            O35
   35.5204840814914107    3.4547242580180919    1.9209516548443859    T  T  T            O36
   37.1410167909343301    5.6839026050947288    1.9209516548443859    F  F  F            O37
    4.1240815052168642    3.3604164289257441    1.9209516548443859    F  F  F            O38
   38.7767924934715680    1.1239647602693137    1.9209516548443859    F  F  F            O39
   15.6293282510621925    1.1610021221320013    1.9209516548443859    T  T  T            O40
   40.4055444924798906    3.3624226908378625    1.9209516548443859    F  F  F            O41
   17.1011079680484563    5.6807412191716242    1.9209516548443859    T  T  T            O42
    2.5148612764095919    5.6110101717412872    1.9209516548443859    F  F  F            O43
   42.0742155752048959    5.5919984004660526    1.9209516548443859    F  F  F            O44
   43.6069428672693746    1.0499367318135790    1.9209516548443859    F  F  F            O45
    9.0341955664875755    3.4028848170673669    1.9209516548443859    F  F  F            O46
   18.8316226383174197    3.5151343609684731    1.9209516548443859    T  T  T            O47
   45.2469244847764003    3.2882416522030233    1.9209516548443859    F  F  F            O48
