cif2pos.py
   1.000
   40.6686756529434632    0.0000000000000000    0.0000000000000000
    0.0000000000000000    6.7963468884617413    0.0000000000000000
    0.0000000000000000    0.0000000000000000    3.8419033096887718
   U    Zr   O 
   23    1   48
Selective Dynamics
Cartesian
    1.6766700050640673    6.7396662903317672    0.0000000000000000    F  F  F             U1
    4.9254246181262378    2.2348990207365427    0.0000000000000000    F  F  F             U2
    8.1954796056987416    4.5249702400376215    0.0000000000000000    F  F  F             U3
   11.5107652611067568    0.0348388384319633    0.0000000000000000    T  T  T             U4
   14.8200230186383859    2.3081133293408649    0.0000000000000000    T  T  T             U5
   18.0923981155896527    4.5684840251946577    0.0000000000000000    T  T  T             U6
   25.7995996877262499    4.5927519978300584    0.0000000000000000    T  T  T             U7
   29.1294532288493286    2.3055286428183264    0.0000000000000000    T  T  T             U8
   32.4389834758972029    0.0034115683682511    0.0000000000000000    F  F  F             U9
   35.7055693486621308    4.4759683331192059    0.0000000000000000    F  F  F            U10
   38.9351780227625284    2.1731554355732974    0.0000000000000000    F  F  F            U11
    1.6657649129755385    3.3430012386500936    1.9209516548443859    F  F  F            U12
   22.5458186319482685    3.3481175256746782    1.9209516548443859    T  T  T            U13
   25.8200144615740754    1.2092429568875243    1.9209516548443859    T  T  T            U14
   11.5081230489277058    3.4318527737199442    1.9209516548443859    T  T  T            U15
    4.9277997248359524    5.6314053602819145    1.9209516548443859    F  F  F            U16
   29.1203805897175627    5.7044758069346804    1.9209516548443859    T  T  T            U17
   14.8253746036834340    5.6954363944485911    1.9209516548443859    T  T  T            U18
   32.4317212451583003    3.4032240753680552    1.9209516548443859    F  F  F            U19
    8.1918134701031899    1.1284783790481530    1.9209516548443859    F  F  F            U20
   35.7082527450311744    1.0830085474584679    1.9209516548443859    F  F  F            U21
   18.0995332469387904    1.1580377951077174    1.9209516548443859    T  T  T            U22
   38.9323466514633481    5.5732689589789794    1.9209516548443859    F  F  F            U23
   22.7390896744057756    0.0573619557936914    0.0000000000000000    T  T  T            Zr1
    0.8873101287152710    4.4585732608847319    0.0000000000000000    F  F  F             O1
    2.5072024030543538    2.2190857681958684    0.0000000000000000    F  F  F             O2
    4.1225649785647214    6.7607650334689913    0.0000000000000000    F  F  F             O3
    5.7681558352430740    4.5100793177868290    0.0000000000000000    F  F  F             O4
    7.3920740981838380    2.2537636686038702    0.0000000000000000    F  F  F             O5
    9.0341565657243059    0.0054397827352461    0.0000000000000000    F  F  F             O6
   10.6977997479618274    4.5571207167062386    0.0000000000000000    T  T  T             O7
   12.3600776452936163    2.3176850243776905    0.0000000000000000    T  T  T             O8
   14.0141165695441536    0.0675535309243694    0.0000000000000000    T  T  T             O9
   15.6527522739347198    4.5524847149801690    0.0000000000000000    T  T  T            O10
   17.3005918099423610    2.3486986323129688    0.0000000000000000    T  T  T            O11
   18.8018511619283615    0.0187729867673665    0.0000000000000000    T  T  T            O12
   21.8704935913216048    2.0339452438313641    0.0000000000000000    T  T  T            O13
   23.2673290736774803    4.4985438624556817    0.0000000000000000    T  T  T            O14
   24.8771433370471939    6.7751801000947376    0.0000000000000000    T  T  T            O15
   26.6616138897943742    2.3041048288122448    0.0000000000000000    T  T  T            O16
   28.2975421915945340    4.5759264172956753    0.0000000000000000    T  T  T            O17
   29.9723609285778707    0.0191858820121079    0.0000000000000000    T  T  T            O18
   31.6275748888555626    2.2785640214872336    0.0000000000000000    F  F  F            O19
   33.2742631047486483    4.5183174212123776    0.0000000000000000    F  F  F            O20
   34.9088366584366483    6.7489754272900768    0.0000000000000000    F  F  F            O21
   36.5481875355080206    2.2006170557563149    0.0000000000000000    F  F  F            O22
   38.1283670196090796    4.4204335233578620    0.0000000000000000    F  F  F            O23
   39.7194738160883816    6.7074025574918572    0.0000000000000000    F  F  F            O24
   10.6989767751344438    1.1574982256250137    1.9209516548443859    T  T  T            O25
   22.0418954125947835    6.0490023822880703    1.9209516548443859    T  T  T            O26
   23.5847233996715104    1.3074196597019550    1.9209516548443859    T  T  T            O27
    0.8939682245924825    1.0449996631738878    1.9209516548443859    F  F  F            O28
   25.0374776304542550    3.5145319513100390    1.9209516548443859    T  T  T            O29
   12.3621987052886890    5.7128262345124394    1.9209516548443859    T  T  T            O30
    5.7668189960800191    1.1101394718850419    1.9209516548443859    F  F  F            O31
   26.6617730697539272    5.7586071761606359    1.9209516548443859    T  T  T            O32
   28.3255725529029796    1.1884688568744386    1.9209516548443859    T  T  T            O33
   14.0053581147528217    3.4373281917898613    1.9209516548443859    T  T  T            O34
    7.3943885640652036    5.6520255867703071    1.9209516548443859    F  F  F            O35
   29.9768743571649061    3.4289658892033228    1.9209516548443859    T  T  T            O36
   31.6410167909342093    5.6839026050947288    1.9209516548443859    F  F  F            O37
    4.1240815052168163    3.3604164289257441    1.9209516548443859    F  F  F            O38
   33.2767924934714614    1.1239647602693137    1.9209516548443859    F  F  F            O39
   15.7281851078597086    1.1616398725718529    1.9209516548443859    T  T  T            O40
   34.9055444924800184    3.3624226908378625    1.9209516548443859    F  F  F            O41
   17.2415771514675527    5.6402324698890842    1.9209516548443859    T  T  T            O42
    2.5148612764095919    5.6110101717412872    1.9209516548443859    F  F  F            O43
   36.5742155752049740    5.5919984004660526    1.9209516548443859    F  F  F            O44
   38.1069428672693533    1.0499367318135790    1.9209516548443859    F  F  F            O45
    9.0341955664874689    3.4028848170673669    1.9209516548443859    F  F  F            O46
   19.0779878541144967    3.4774163626511667    1.9209516548443859    T  T  T            O47
   39.7469244847764998    3.2882416522030233    1.9209516548443859    F  F  F            O48
