Generated by VASPKIT code
 1.000000
   39.1686756529434632    0.0000000000000000    0.0000000000000000
    0.0000000000000000    6.7963468884617413    0.0000000000000000
    0.0000000000000000    0.0000000000000000    3.8419033096887718
   U    O 
    24    48
Direct
    0.0416670000000000    0.0000000000000000    0.0000000000000000     U001
    0.1250000000000000    0.3333330000000000    0.0000000000000000     U002
    0.2083340000000000    0.6666660000000000    0.0000000000000000     U003
    0.2916660000000000    0.0000000000000000    0.0000000000000000     U004
    0.3750000000000000    0.3333330000000000    0.0000000000000000     U005
    0.4583340000000000    0.6666660000000000    0.0000000000000000     U006
    0.5416670000000000    0.0000000000000000    0.0000000000000000     U007
    0.6250000000000000    0.3333330000000000    0.0000000000000000     U008
    0.7083340000000000    0.6666660000000000    0.0000000000000000     U009
    0.7916660000000000    0.0000000000000000    0.0000000000000000     U010
    0.8750000000000000    0.3333330000000000    0.0000000000000000     U011
    0.9583340000000000    0.6666660000000000    0.0000000000000000     U012
    0.0416670000000000    0.5000000000000000    0.5000000000000000     U013
    0.5416670000000000    0.5000000000000000    0.5000000000000000     U014
    0.6250000000000000    0.8333330000000000    0.5000000000000000     U015
    0.2916660000000000    0.5000000000000000    0.5000000000000000     U016
    0.1250000000000000    0.8333330000000000    0.5000000000000000     U017
    0.7083340000000000    0.1666660000000000    0.5000000000000000     U018
    0.3750000000000000    0.8333330000000000    0.5000000000000000     U019
    0.7916660000000000    0.5000000000000000    0.5000000000000000     U020
    0.2083340000000000    0.1666660000000000    0.5000000000000000     U021
    0.8750000000000000    0.8333330000000000    0.5000000000000000     U022
    0.4583340000000000    0.1666660000000000    0.5000000000000000     U023
    0.9583340000000000    0.1666660000000000    0.5000000000000000     U024
    0.0210470000000000    0.6666660000000000    0.0000000000000000     O001
    0.0631410000000000    0.3333330000000000    0.0000000000000000     O002
    0.1035260000000000    0.0000000000000000    0.0000000000000000     O003
    0.1456200000000000    0.6666670000000000    0.0000000000000000     O004
    0.1877140000000000    0.3333330000000000    0.0000000000000000     O005
    0.2289530000000000    0.0000000000000000    0.0000000000000000     O006
    0.2710470000000000    0.6666660000000000    0.0000000000000000     O007
    0.3131410000000000    0.3333330000000000    0.0000000000000000     O008
    0.3535250000000000    0.0000000000000000    0.0000000000000000     O009
    0.3956200000000000    0.6666670000000000    0.0000000000000000     O010
    0.4377140000000000    0.3333330000000000    0.0000000000000000     O011
    0.4789530000000000    0.0000000000000000    0.0000000000000000     O012
    0.5210470000000000    0.6666660000000000    0.0000000000000000     O013
    0.5631410000000000    0.3333330000000000    0.0000000000000000     O014
    0.6035260000000000    0.0000000000000000    0.0000000000000000     O015
    0.6456200000000000    0.6666670000000000    0.0000000000000000     O016
    0.6877130000000000    0.3333330000000000    0.0000000000000000     O017
    0.7289530000000000    0.0000000000000000    0.0000000000000000     O018
    0.7710470000000000    0.6666660000000000    0.0000000000000000     O019
    0.8131410000000000    0.3333330000000000    0.0000000000000000     O020
    0.8535260000000000    0.0000000000000000    0.0000000000000000     O021
    0.8956200000000000    0.6666670000000000    0.0000000000000000     O022
    0.9377140000000000    0.3333330000000000    0.0000000000000000     O023
    0.9789530000000000    0.0000000000000000    0.0000000000000000     O024
    0.2710470000000000    0.1666660000000000    0.5000000000000000     O025
    0.5210470000000000    0.1666660000000000    0.5000000000000000     O026
    0.5631410000000000    0.8333340000000000    0.5000000000000000     O027
    0.0210470000000000    0.1666660000000000    0.5000000000000000     O028
    0.6035260000000000    0.5000000000000000    0.5000000000000000     O029
    0.3131410000000000    0.8333340000000000    0.5000000000000000     O030
    0.1456200000000000    0.1666670000000000    0.5000000000000000     O031
    0.6456200000000000    0.1666670000000000    0.5000000000000000     O032
    0.6877130000000000    0.8333330000000000    0.5000000000000000     O033
    0.3535250000000000    0.5000000000000000    0.5000000000000000     O034
    0.1877140000000000    0.8333330000000000    0.5000000000000000     O035
    0.7289530000000000    0.5000000000000000    0.5000000000000000     O036
    0.7710470000000000    0.1666660000000000    0.5000000000000000     O037
    0.1035260000000000    0.5000000000000000    0.5000000000000000     O038
    0.8131410000000000    0.8333340000000000    0.5000000000000000     O039
    0.3956200000000000    0.1666670000000000    0.5000000000000000     O040
    0.8535260000000000    0.5000000000000000    0.5000000000000000     O041
    0.4377140000000000    0.8333330000000000    0.5000000000000000     O042
    0.0631410000000000    0.8333340000000000    0.5000000000000000     O043
    0.8956200000000000    0.1666670000000000    0.5000000000000000     O044
    0.9377140000000000    0.8333330000000000    0.5000000000000000     O045
    0.2289530000000000    0.5000000000000000    0.5000000000000000     O046
    0.4789530000000000    0.5000000000000000    0.5000000000000000     O047
    0.9789530000000000    0.5000000000000000    0.5000000000000000     O048
