cif2pos.py
   1.000
   42.1686756529434632    0.0000000000000000    0.0000000000000000
    0.0000000000000000    6.7963468884617413    0.0000000000000000
    0.0000000000000000    0.0000000000000000    3.8419033096887718
   U    O 
   24   48
Selective Dynamics
Cartesian
    1.6336382601605244    6.7952536518129811    0.0000000000000000    F  F  F             U1
    4.8981774689625590    2.2655927305148849    0.0000000000000000    F  F  F             U2
    8.1627361399183496    4.5314234418361519    0.0000000000000000    F  F  F             U3
   11.4264530862318523    0.0080779945657793    0.0000000000000000    T  T  T             U4
   14.6879449729038694    2.2638764289923388    0.0000000000000000    T  T  T             U5
   17.9493220459138172    4.5202290116141901    0.0000000000000000    T  T  T             U6
   24.2125910231938164    6.7918999896275141    0.0000000000000000    T  T  T             U7
   27.4784243021919039    2.2655673859906935    0.0000000000000000    T  T  T             U8
   30.7431631630075479    4.5304154796887985    0.0000000000000000    T  T  T             U9
   34.0082671330773394    6.7962546843396670    0.0000000000000000    F  F  F            U10
   37.2731683681461021    2.2654031960728589    0.0000000000000000    F  F  F            U11
   40.5378034785548635    4.5293657440714314    0.0000000000000000    F  F  F            U12
    1.6336351399958819    3.3970921938147001    1.9209516548443859    F  F  F            U13
   24.2129337517010015    3.3931704309238553    1.9209516548443859    T  T  T            U14
   27.4781397794976634    5.6637445862088640    1.9209516548443859    T  T  T            U15
   11.4297123114729828    3.4077336003627634    1.9209516548443859    T  T  T            U16
    4.8984039369445798    5.6637277549531726    1.9209516548443859    F  F  F            U17
   30.7431964083969724    1.1322538596972254    1.9209516548443859    T  T  T            U18
   14.6878222601935935    5.6619851125389857    1.9209516548443859    T  T  T            U19
   34.0082832591548083    3.3980823914578870    1.9209516548443859    F  F  F            U20
    8.1623124546533603    1.1338847677591648    1.9209516548443859    F  F  F            U21
   37.2731678253636076    5.6635414020320205    1.9209516548443859    F  F  F            U22
   17.9460163137238879    1.1206053548096868    1.9209516548443859    T  T  T            U23
   40.5378204192966010    1.1312086793837770    1.9209516548443859    F  F  F            U24
    0.8137301793841049    4.5276033017664510    0.0000000000000000    F  F  F             O1
    2.4540071292640677    2.2662466169392674    0.0000000000000000    F  F  F             O2
    4.0784452792421835    6.7934049956262301    0.0000000000000000    F  F  F             O3
    5.7185431040005064    4.5351749834988562    0.0000000000000000    F  F  F             O4
    7.3423258894308319    2.2608624879943204    0.0000000000000000    F  F  F             O5
    8.9820631145804768    0.0045270542764150    0.0000000000000000    F  F  F             O6
   10.6080074279719199    4.5377963683627058    0.0000000000000000    T  T  T             O7
   12.2521715528663382    2.2790867661816114    0.0000000000000000    T  T  T             O8
   13.8769377422566809    0.0029704763692116    0.0000000000000000    T  T  T             O9
   15.4976713810200124    4.5256247458740724    0.0000000000000000    T  T  T            O10
   17.1238729030962133    2.2492360014704005    0.0000000000000000    T  T  T            O11
   18.7680554231142906    6.7891966411951952    0.0000000000000000    T  T  T            O12
   23.3917917024468984    4.5226169613245331    0.0000000000000000    T  T  T            O13
   25.0330780459309352    2.2632933551175780    0.0000000000000000    T  T  T            O14
   26.6586056974260224    6.7935087309036506    0.0000000000000000    T  T  T            O15
   28.2981767893124534    4.5361097343829613    0.0000000000000000    T  T  T            O16
   29.9232284247798397    2.2607931777946209    0.0000000000000000    T  T  T            O17
   31.5634964283019990    0.0026050017593701    0.0000000000000000    T  T  T            O18
   33.1877113515182032    4.5291231038273487    0.0000000000000000    F  F  F            O19
   34.8290422806987792    2.2672647887559920    0.0000000000000000    F  F  F            O20
   36.4531899901483527    6.7934566105039060    0.0000000000000000    F  F  F            O21
   38.0929191958703228    4.5347270880160746    0.0000000000000000    F  F  F            O22
   39.7186243927967837    2.2596273944147014    0.0000000000000000    F  F  F            O23
   41.3574690190794456    0.0016384913973780    0.0000000000000000    F  F  F            O24
   10.6088828375667301    1.1394429222666644    1.9209516548443859    T  T  T            O25
   23.3935125445999397    1.1249672309542125    1.9209516548443859    T  T  T            O26
   25.0327018807481281    5.6605635481749292    1.9209516548443859    T  T  T            O27
    0.8137733779685169    1.1295560238617510    1.9209516548443859    F  F  F            O28
   26.6589114189364835    3.3950189196919220    1.9209516548443859    T  T  T            O29
   12.2440283463142823    5.6784168477070400    1.9209516548443859    T  T  T            O30
    5.7184591831332456    1.1373435199975868    1.9209516548443859    F  F  F            O31
   28.2982835118658294    1.1376401972098005    1.9209516548443859    T  T  T            O32
   29.9231855234117816    5.6588140334084081    1.9209516548443859    T  T  T            O33
   13.8578813721447744    3.4085998839570415    1.9209516548443859    T  T  T            O34
    7.3428025659712324    5.6590842312505307    1.9209516548443859    F  F  F            O35
   31.5635901848822797    3.4006548004502615    1.9209516548443859    T  T  T            O36
   33.1876951700500413    1.1310718934428434    1.9209516548443859    F  F  F            O37
    4.0780753028548054    3.3953209167486702    1.9209516548443859    F  F  F            O38
   34.8288610796256037    5.6655192214360435    1.9209516548443859    F  F  F            O39
   15.5183030434162728    1.1188748477799022    1.9209516548443859    T  T  T            O40
   36.4531324269333012    3.3954986112580472    1.9209516548443859    F  F  F            O41
   17.1331162023977086    5.6450518752442882    1.9209516548443859    T  T  T            O42
    2.4538342425719746    5.6644855245262562    1.9209516548443859    F  F  F            O43
   38.0927842851736074    1.1367468163375776    1.9209516548443859    F  F  F            O44
   39.7183256119442092    5.6578588349840810    1.9209516548443859    F  F  F            O45
    8.9814318643762778    3.4016410918593389    1.9209516548443859    F  F  F            O46
   18.7672913105504051    3.3905028322698163    1.9209516548443859    T  T  T            O47
   41.3574758207297535    3.3999467610992027    1.9209516548443859    F  F  F            O48
