Generated by VASPKIT code
 1.000000
   39.1686756529434632    0.0000000000000000    0.0000000000000000
    0.0000000000000000    6.7963468884617413    0.0000000000000000
    0.0000000000000000    0.0000000000000000    3.8419033096887718
   U    O 
    12    24
Direct
    0.0416670000000000    0.0000000000000000    0.0000000000000000     U001
    0.1250000000000000    0.3333330000000000    0.0000000000000000     U002
    0.2083340000000000    0.6666660000000000    0.0000000000000000     U003
    0.2916660000000000    0.0000000000000000    0.0000000000000000     U004
    0.3750000000000000    0.3333330000000000    0.0000000000000000     U005
    0.4583340000000000    0.6666660000000000    0.0000000000000000     U006
    0.0416670000000000    0.5000000000000000    0.5000000000000000     U007
    0.2916660000000000    0.5000000000000000    0.5000000000000000     U008
    0.1250000000000000    0.8333330000000000    0.5000000000000000     U009
    0.3750000000000000    0.8333330000000000    0.5000000000000000     U010
    0.2083340000000000    0.1666660000000000    0.5000000000000000     U011
    0.4583340000000000    0.1666660000000000    0.5000000000000000     U012
    0.0210470000000000    0.6666660000000000    0.0000000000000000     O001
    0.0631410000000000    0.3333330000000000    0.0000000000000000     O002
    0.1035260000000000    0.0000000000000000    0.0000000000000000     O003
    0.1456200000000000    0.6666670000000000    0.0000000000000000     O004
    0.1877140000000000    0.3333330000000000    0.0000000000000000     O005
    0.2289530000000000    0.0000000000000000    0.0000000000000000     O006
    0.2710470000000000    0.6666660000000000    0.0000000000000000     O007
    0.3131410000000000    0.3333330000000000    0.0000000000000000     O008
    0.3535250000000000    0.0000000000000000    0.0000000000000000     O009
    0.3956200000000000    0.6666670000000000    0.0000000000000000     O010
    0.4377140000000000    0.3333330000000000    0.0000000000000000     O011
    0.4789530000000000    0.0000000000000000    0.0000000000000000     O012
    0.2710470000000000    0.1666660000000000    0.5000000000000000     O013
    0.0210470000000000    0.1666660000000000    0.5000000000000000     O014
    0.3131410000000000    0.8333340000000000    0.5000000000000000     O015
    0.1456200000000000    0.1666670000000000    0.5000000000000000     O016
    0.3535250000000000    0.5000000000000000    0.5000000000000000     O017
    0.1877140000000000    0.8333330000000000    0.5000000000000000     O018
    0.1035260000000000    0.5000000000000000    0.5000000000000000     O019
    0.3956200000000000    0.1666670000000000    0.5000000000000000     O020
    0.4377140000000000    0.8333330000000000    0.5000000000000000     O021
    0.0631410000000000    0.8333340000000000    0.5000000000000000     O022
    0.2289530000000000    0.5000000000000000    0.5000000000000000     O023
    0.4789530000000000    0.5000000000000000    0.5000000000000000     O024
