cif2pos.py
   1.000
   45.1686756529434632    0.0000000000000000    0.0000000000000000
    0.0000000000000000    6.7963468884617413    0.0000000000000000
    0.0000000000000000    0.0000000000000000    3.8419033096887718
   U    La   O 
   23    1   48
Selective Dynamics
Cartesian
    1.6515662758114078    6.7613247645821168    0.0000000000000000    F  F  F             U1
    4.8860701202154964    2.2558078850929824    0.0000000000000000    F  F  F             U2
    8.1217163788519429    4.5244694989853187    0.0000000000000000    F  F  F             U3
   11.3629169780363632    6.7915617061022342    0.0000000000000000    T  T  T             U4
   14.6046411669209597    2.2903071109921327    0.0000000000000000    T  T  T             U5
   17.8678049930628262    4.5510452497155116    0.0000000000000000    T  T  T             U6
   30.5597030411824484    4.5932293618755375    0.0000000000000000    T  T  T             U7
   33.7938014020316047    2.2805596276695761    0.0000000000000000    T  T  T             U8
   37.0398862701435476    6.7804678708485078    0.0000000000000000    F  F  F             U9
   40.2872979695851683    4.4822393811649910    0.0000000000000000    F  F  F            U10
   43.4872275652472666    2.1875917301140011    0.0000000000000000    F  F  F            U11
    1.6518292912557666    3.3625286806774803    1.9209516548443859    F  F  F            U12
   27.3167182528275774    3.4613255876899856    1.9209516548443859    T  T  T            U13
   30.5350636947144878    1.1958611651621267    1.9209516548443859    T  T  T            U14
   11.3609981828041775    3.3982301139967741    1.9209516548443859    T  T  T            U15
    4.8827285227217976    5.6520375574239479    1.9209516548443859    F  F  F            U16
   33.8005573052241601    5.6803305302739471    1.9209516548443859    T  T  T            U17
   14.6232478424083290    5.6836219352300974    1.9209516548443859    T  T  T            U18
   37.0408894504230446    3.3810705742101259    1.9209516548443859    F  F  F            U19
    8.1205463068199393    1.1251281333827223    1.9209516548443859    F  F  F            U20
   40.2850492446696862    1.0853236806499302    1.9209516548443859    F  F  F            U21
   17.7878424938391184    1.1805751489686083    1.9209516548443859    T  T  T            U22
   43.4875748968152678    5.5861044447056454    1.9209516548443859    F  F  F            U23
   27.2439852473787170    0.0326093274989403    0.0000000000000000    T  T  T            La1
    0.8698894212142142    4.4702627993058108    0.0000000000000000    F  F  F             O1
    2.4803482425952423    2.2362244878326640    0.0000000000000000    F  F  F             O2
    4.0889854427766084    6.7808393711880104    0.0000000000000000    F  F  F             O3
    5.7091098046683397    4.5324724382742962    0.0000000000000000    F  F  F             O4
    7.3184410959472723    2.2696709216458841    0.0000000000000000    F  F  F             O5
    8.9613115350111947    6.7786376535634680    0.0000000000000000    F  F  F             O6
   10.5692046850930428    4.5214654424531062    0.0000000000000000    T  T  T             O7
   12.1911466724843471    2.2722527878918570    0.0000000000000000    T  T  T             O8
   13.8183646898583579    0.0080243009623779    0.0000000000000000    T  T  T             O9
   15.4924865728834344    4.5694624010841780    0.0000000000000000    T  T  T            O10
   16.9798241729883905    2.2885292835408264    0.0000000000000000    T  T  T            O11
   18.6863180139313627    0.0880728699792779    0.0000000000000000    T  T  T            O12
   26.4250838540275659    2.6174635785426363    0.0000000000000000    T  T  T            O13
   28.2113986916179584    4.5039561808594675    0.0000000000000000    T  T  T            O14
   29.7416997586555922    0.0848032446371632    0.0000000000000000    T  T  T            O15
   31.3903531546059504    2.3179901013842348    0.0000000000000000    T  T  T            O16
   33.0104814668551896    4.5583404084892951    0.0000000000000000    T  T  T            O17
   34.6344516618239595    0.0023775471920331    0.0000000000000000    T  T  T            O18
   36.2526945776903986    2.2503065484774973    0.0000000000000000    F  F  F            O19
   37.8634170782613566    4.5097068475592037    0.0000000000000000    F  F  F            O20
   39.4891404652372344    6.7582391213334265    0.0000000000000000    F  F  F            O21
   41.1339997885079640    2.2030853059671309    0.0000000000000000    F  F  F            O22
   42.6768504264163582    4.4444650706892501    0.0000000000000000    F  F  F            O23
   44.2641524216189453    6.7036343002928218    0.0000000000000000    F  F  F            O24
   10.5639363310734691    1.1244094642069387    1.9209516548443859    T  T  T            O25
   26.5020440850062009    5.4295176553427815    1.9209516548443859    T  T  T            O26
   28.0282009670450449    1.3590533465807431    1.9209516548443859    T  T  T            O27
    0.8688917680685627    1.0717105590299221    1.9209516548443859    F  F  F            O28
   29.7577826665797858    3.4625789052862022    1.9209516548443859    T  T  T            O29
   12.1959606641857352    5.6676977137799156    1.9209516548443859    T  T  T            O30
    5.7203190225650049    1.1338478095879658    1.9209516548443859    F  F  F            O31
   31.3765672541248968    5.7172996691353628    1.9209516548443859    T  T  T            O32
   32.9888379529590452    1.1572834458994017    1.9209516548443859    T  T  T            O33
   13.8169209047865973    3.4246092200017486    1.9209516548443859    T  T  T            O34
    7.3340925341407797    5.6600723334398628    1.9209516548443859    F  F  F            O35
   34.6261149959124879    3.3959326023646961    1.9209516548443859    T  T  T            O36
   36.2343176254411716    5.6417159044675875    1.9209516548443859    F  F  F            O37
    4.0883290913743187    3.3820107765464278    1.9209516548443859    F  F  F            O38
   37.8820209576590159    1.1193207416677939    1.9209516548443859    F  F  F            O39
   15.4315294240405141    1.1592711119624874    1.9209516548443859    T  T  T            O40
   39.4957131279792151    3.3620964806655707    1.9209516548443859    F  F  F            O41
   17.0522852392115922    5.7267265779942091    1.9209516548443859    T  T  T            O42
    2.4810717692123649    5.6351993149044350    1.9209516548443859    F  F  F            O43
   41.1335318808063448    5.6007375472865828    1.9209516548443859    F  F  F            O44
   42.6774707556458992    1.0463493234173424    1.9209516548443859    F  F  F            O45
    8.9438557199956144    3.3905339892836333    1.9209516548443859    F  F  F            O46
   18.5496936552008762    3.3970649687110486    1.9209516548443859    T  T  T            O47
   44.2643318745913703    3.3060797751974023    1.9209516548443859    F  F  F            O48
