cif2pos.py
   1.000
   39.8378009073876669    0.0000000000000000    0.0000000000000000
    0.0000000000000000   13.1421435162302842    0.0000000000000000
    0.0000000000000000    0.0000000000000000    3.8761186333578821
   U    La   O 
   43    1   88
Selective Dynamics
Cartesian
    0.0000000000000000   12.5353308799855050    0.0000000000000000    F  F  F             U1
    5.4641934286519600   10.7680793814899065    0.0000000000000000    F  F  F             U2
   10.4051441622621681    8.3658451522015334    0.0000000000000000    T  T  T             U3
   15.5417007528353697    5.9509473653197009    0.0000000000000000    T  T  T             U4
    2.2604733597658648    3.5831580874270701    0.0000000000000000    F  F  F             U5
   16.8971728847054550    9.5521686069440666    0.0000000000000000    T  T  T             U6
    3.6131385825797939    7.1702576706677803    0.0000000000000000    F  F  F             U7
    8.7650676363483164    4.7879040023082657    0.0000000000000000    F  F  F             U8
   13.6741206887730460    2.3723796656968141    0.0000000000000000    T  T  T             U9
    7.0455068051722414    1.1842577625595996    0.0000000000000000    F  F  F            U10
   12.1161915183271880   11.9425140691429235    0.0000000000000000    T  T  T            U11
    2.2617022742936794   10.1491696584137898    1.9380593166789410    F  F  F            U12
    7.0580235349395464    7.7780596048043167    1.9380593166789410    F  F  F            U13
   12.1173124676616126    5.3888861922294184    1.9380593166789410    T  T  T            U14
   16.8914927866207556    2.9628973144530821    1.9380593166789410    T  T  T            U15
    3.6066429184644773    0.5962839696534746    1.9380593166789410    F  F  F            U16
   20.6689004536938334    7.1601231955065083    1.9380593166789410    T  T  T            U17
    5.4639747244954053    4.1904866912189283    1.9380593166789410    F  F  F            U18
   10.3856677007236176    1.7832429932088165    1.9380593166789410    T  T  T            U19
   15.5659291106798641   12.5599501680355878    1.9380593166789410    T  T  T            U20
    8.7679720945392319   11.3479630037670418    1.9380593166789410    F  F  F            U21
   13.7030019346647816    8.9501844283942749    1.9380593166789410    T  T  T            U22
   26.1636802186148998    2.3723796656968141    0.0000000000000000    T  T  T            U23
   31.0727332710385333    4.7879040023082657    0.0000000000000000    F  F  F            U24
   36.2246623248084134    7.1702576706677803    0.0000000000000000    F  F  F            U25
   22.9406280226827519    9.5521686069440666    0.0000000000000000    T  T  T            U26
   37.5773275476207047    3.5831580874270701    0.0000000000000000    F  F  F            U27
   24.2961001545528390    5.9509473653197009    0.0000000000000000    T  T  T            U28
   29.4326567451249481    8.3658451522015334    0.0000000000000000    T  T  T            U29
   34.3736074787357069   10.7680793814899065    0.0000000000000000    F  F  F            U30
   27.7216093890602053   11.9425140691429235    0.0000000000000000    T  T  T            U31
   32.7922941022159762    1.1842577625595996    0.0000000000000000    F  F  F            U32
   22.9463081207671813    2.9628973144530821    1.9380593166789410    T  T  T            U33
   27.7204884397268678    5.3888861922294184    1.9380593166789410    T  T  T            U34
   32.7797773724475761    7.7780596048043167    1.9380593166789410    F  F  F            U35
   37.5760986330931672   10.1491696584137898    1.9380593166789410    F  F  F            U36
   24.2718717967080764   12.5599501680355878    1.9380593166789410    T  T  T            U37
    0.0000000000000000    5.9667500804452756    1.9380593166789410    F  F  F            U38
   26.1347989727234307    8.9501844283942749    1.9380593166789410    T  T  T            U39
   31.0698288128481650   11.3479630037670418    1.9380593166789410    F  F  F            U40
   36.2311579889237265    0.5962839696534746    1.9380593166789410    F  F  F            U41
   29.4521332066643140    1.7832429932088165    1.9380593166789410    T  T  T            U42
   34.3738261828928060    4.1904866912189283    1.9380593166789410    F  F  F            U43
   20.6689004536938334    0.5766608778963614    0.0000000000000000    T  T  T            La1
    3.5312710190864500    9.4963666581296842    0.0000000000000000    F  F  F             O1
    8.3432713868073254    7.1712777135405954    0.0000000000000000    F  F  F             O2
   13.2966556717880167    4.8177445388422262    0.0000000000000000    T  T  T             O3
   17.9466295800292350    2.6674313206979710    0.0000000000000000    T  T  T             O4
    4.8863867433859625    0.0035607944122055    0.0000000000000000    F  F  F             O5
    1.3882155113005381    5.9444834165683140    0.0000000000000000    F  F  F             O6
    6.6846133375784724    3.5822991922354483    0.0000000000000000    F  F  F             O7
   11.6690038957766937    1.1848808997448808    0.0000000000000000    T  T  T             O8
   16.8349300743820258   11.8491059088252122    0.0000000000000000    T  T  T             O9
   10.0165036809663128   10.7304918808175742    0.0000000000000000    T  T  T            O10
   15.0267978865498630    8.3009870435346453    0.0000000000000000    T  T  T            O11
    4.1337918643753797   11.3837347793087940    1.9380593166789410    F  F  F            O12
    9.1634749845945453    8.9714394089216505    1.9380593166789410    F  F  F            O13
   14.2919016405435322    6.5315054644169832    1.9380593166789410    T  T  T            O14
    1.2188358591637825    4.0495768400859253    1.9380593166789410    F  F  F            O15
    5.8646599627355585    1.7657604171672714    1.9380593166789410    F  F  F            O16
    2.3534291758529000    7.8316946444925915    1.9380593166789410    F  F  F            O17
    7.4797081734067277    5.3864411326233181    1.9380593166789410    F  F  F            O18
   12.4699131305631177    2.9956470420373162    1.9380593166789410    T  T  T            O19
   17.5993656340642595    0.7490043772821001    1.9380593166789410    T  T  T            O20
   10.8121138599334916   12.5529925285109218    1.9380593166789410    T  T  T            O21
   15.6259774199480539   10.2074712012283797    1.9380593166789410    T  T  T            O22
    1.3903564121536072   12.5163527852034608    1.9380593166789410    F  F  F            O23
    6.6808687105494204   10.1739990229064912    1.9380593166789410    F  F  F            O24
   11.7013770669524622    7.7659300766711770    1.9380593166789410    T  T  T            O25
   16.7910838940433571    5.2301488811048849    1.9380593166789410    T  T  T            O26
    3.5375703019719342    2.9287846629810668    1.9380593166789410    F  F  F            O27
   17.9440079317229539    9.0634353370176619    1.9380593166789410    T  T  T            O28
    4.8979952136512903    6.5874272269786456    1.9380593166789410    F  F  F            O29
    9.9868402188869130    4.1917640158294027    1.9380593166789410    T  T  T            O30
   14.9669066359291989    1.7763867607718737    1.9380593166789410    T  T  T            O31
    8.3232185942056525    0.5707985208000855    1.9380593166789410    F  F  F            O32
   13.2741618737705931   11.3773907400113430    1.9380593166789410    T  T  T            O33
    1.2181303659718312   10.6221332740851384    0.0000000000000000    F  F  F            O34
    5.8772620913400315    8.3590460039746475    0.0000000000000000    F  F  F            O35
   10.8328580281272409    6.0071287230875958    0.0000000000000000    T  T  T            O36
   15.6189427672871179    3.5935471034732545    0.0000000000000000    T  T  T            O37
    2.3532512270952184    1.2661331151481912    0.0000000000000000    F  F  F            O38
   17.7725913516665699    7.1557340735747195    0.0000000000000000    T  T  T            O39
    4.1312771706089189    4.8203878383101184    0.0000000000000000    F  F  F            O40
    9.1664503230919312    2.3833321917989880    0.0000000000000000    F  F  F            O41
   14.2843125014203380   13.1159586069240799    0.0000000000000000    T  T  T            O42
    7.4817150240460322   11.9502003243219477    0.0000000000000000    F  F  F            O43
   12.5072958850269185    9.5436843113202592    0.0000000000000000    T  T  T            O44
   24.2188581401016414    3.5935471034732545    0.0000000000000000    T  T  T            O45
   29.0049428792615203    6.0071287230875958    0.0000000000000000    T  T  T            O46
   33.9605388160476309    8.3590460039746475    0.0000000000000000    F  F  F            O47
   38.6196705414161059   10.6221332740851384    0.0000000000000000    F  F  F            O48
   25.5534884059667782   13.1159586069240799    0.0000000000000000    T  T  T            O49
   22.0652095557197399    7.1557340735747195    0.0000000000000000    T  T  T            O50
   27.3305050223604766    9.5436843113202592    0.0000000000000000    T  T  T            O51
   32.3560858833418976   11.9502003243219477    0.0000000000000000    F  F  F            O52
   37.4845496802924458    1.2661331151481912    0.0000000000000000    F  F  F            O53
   30.6713505842954639    2.3833321917989880    0.0000000000000000    F  F  F            O54
   35.7065237367792818    4.8203878383101184    0.0000000000000000    F  F  F            O55
   24.8708942714573666    1.7763867607718737    1.9380593166789410    T  T  T            O56
   29.8509606885002121    4.1917640158294027    1.9380593166789410    T  T  T            O57
   34.9398056937369148    6.5874272269786456    1.9380593166789410    F  F  F            O58
   21.8937929756644323    9.0634353370176619    1.9380593166789410    T  T  T            O59
   26.5636390336165178   11.3773907400113430    1.9380593166789410    T  T  T            O60
   23.0467170133448533    5.2301488811048849    1.9380593166789410    T  T  T            O61
   28.1364238404338387    7.7659300766711770    1.9380593166789410    T  T  T            O62
   33.1569321968377011   10.1739990229064912    1.9380593166789410    F  F  F            O63
   38.4474444952332348   12.5163527852034608    1.9380593166789410    F  F  F            O64
   31.5145823131822809    0.5707985208000855    1.9380593166789410    F  F  F            O65
   36.3002306054165587    2.9287846629810668    1.9380593166789410    F  F  F            O66
   22.2384352733242210    0.7490043772821001    1.9380593166789410    T  T  T            O67
   27.3678877768250857    2.9956470420373162    1.9380593166789410    T  T  T            O68
   32.3580927339814792    5.3864411326233181    1.9380593166789410    F  F  F            O69
   37.4843717315339546    7.8316946444925915    1.9380593166789410    F  F  F            O70
   24.2118234874396130   10.2074712012283797    1.9380593166789410    T  T  T            O71
   38.6189650482236146    4.0495768400859253    1.9380593166789410    F  F  F            O72
   25.5458992668438540    6.5315054644169832    1.9380593166789410    T  T  T            O73
   30.6743259227933969    8.9714394089216505    1.9380593166789410    F  F  F            O74
   35.7040090430130945   11.3837347793087940    1.9380593166789410    F  F  F            O75
   29.0256870474544471   12.5529925285109218    1.9380593166789410    T  T  T            O76
   33.9731409446521084    1.7657604171672714    1.9380593166789410    F  F  F            O77
   21.8911713273581547    2.6674313206979710    0.0000000000000000    T  T  T            O78
   26.5411452355985560    4.8177445388422262    0.0000000000000000    T  T  T            O79
   31.4945295205797997    7.1712777135405954    0.0000000000000000    F  F  F            O80
   36.3065298883009433    9.4963666581296842    0.0000000000000000    F  F  F            O81
   23.0028708330056411   11.8491059088252122    0.0000000000000000    T  T  T            O82
   38.4495853960871301    5.9444834165683140    0.0000000000000000    F  F  F            O83
   24.8110030208386156    8.3009870435346453    0.0000000000000000    T  T  T            O84
   29.8212972264213505   10.7304918808175742    0.0000000000000000    T  T  T            O85
   34.9514141640008873    0.0035607944122055    0.0000000000000000    F  F  F            O86
   28.1687970116117903    1.1848808997448808    0.0000000000000000    T  T  T            O87
   33.1531875698097380    3.5822991922354483    0.0000000000000000    F  F  F            O88
