cif2pos.py
   1.000
   44.8378009073876669    0.0000000000000000    0.0000000000000000
    0.0000000000000000   13.1421435162302842    0.0000000000000000
    0.0000000000000000    0.0000000000000000    3.8761186333578821
   U    O 
   44   88
Selective Dynamics
Cartesian
    0.0000000000000000   12.5551636873405776    0.0000000000000000    F  F  F             U1
    5.4556193949366456   10.7650118679051516    0.0000000000000000    F  F  F             U2
   10.4048822310196503    8.3614122636818404    0.0000000000000000    T  T  T             U3
   15.5951848087538441    5.9743136483512425    0.0000000000000000    T  T  T             U4
    2.2419553594642094    3.5835709747557116    0.0000000000000000    F  F  F             U5
   16.9240382186980654    9.5607335725832900    0.0000000000000000    T  T  T             U6
    3.5869503846652382    7.1643941168445258    0.0000000000000000    F  F  F             U7
    8.7664271818685293    4.7865274781975184    0.0000000000000000    F  F  F             U8
   13.7151259357491870    2.3872923175265810    0.0000000000000000    T  T  T             U9
    7.0388639731294509    1.1886095507572638    0.0000000000000000    F  F  F            U10
   12.1167571663365692   11.9497995085851354    0.0000000000000000    T  T  T            U11
    2.2562447583645913   10.1626129082921235    1.9380593166789410    F  F  F            U12
    7.0515223280738377    7.7723041446955925    1.9380593166789410    F  F  F            U13
   12.1278750098566430    5.3821097424703677    1.9380593166789410    T  T  T            U14
   16.9269919369294790    2.9827641868538479    1.9380593166789410    T  T  T            U15
    3.5588158581235509    0.5837924348378309    1.9380593166789410    F  F  F            U16
   25.6689004536938299    7.1323589743255820    1.9380593166789410    T  T  T            U17
    5.4523417914615386    4.1824315551420614    1.9380593166789410    F  F  F            U18
   10.3987210777918282    1.7855466578900987    1.9380593166789410    T  T  T            U19
   15.5800027376662058   12.5526185972609898    1.9380593166789410    T  T  T            U20
    8.7618697554031879   11.3489733561662280    1.9380593166789410    F  F  F            U21
   13.7151923676295748    8.9508375350776657    1.9380593166789410    T  T  T            U22
   25.6689004536938299    0.5577946303503825    0.0000000000000000    T  T  T            U23
   31.1226749716384781    2.3872923175265810    0.0000000000000000    T  T  T            U24
   36.0713737255191376    4.7865274781975184    0.0000000000000000    F  F  F            U25
   41.2508505227224376    7.1643941168445258    0.0000000000000000    F  F  F            U26
   27.9137626886898751    9.5607335725832900    0.0000000000000000    T  T  T            U27
   42.5958455479234530    3.5835709747557116    0.0000000000000000    F  F  F            U28
   29.2426160986340946    5.9743136483512425    0.0000000000000000    T  T  T            U29
   34.4329186763680255    8.3614122636818404    0.0000000000000000    T  T  T            U30
   39.3821815124510266   10.7650118679051516    0.0000000000000000    F  F  F            U31
   32.7210437410510977   11.9497995085851354    0.0000000000000000    T  T  T            U32
   37.7989369342582293    1.1886095507572638    0.0000000000000000    F  F  F            U33
   27.9108089704581843    2.9827641868538479    1.9380593166789410    T  T  T            U34
   32.7099258975310505    5.3821097424703677    1.9380593166789410    T  T  T            U35
   37.7862785793138372    7.7723041446955925    1.9380593166789410    F  F  F            U36
   42.5815561490230792   10.1626129082921235    1.9380593166789410    F  F  F            U37
   29.2577981697214717   12.5526185972609898    1.9380593166789410    T  T  T            U38
    0.0000000000000000    5.9944984735779778    1.9380593166789410    F  F  F            U39
   31.1226085397583674    8.9508375350776657    1.9380593166789410    T  T  T            U40
   36.0759311519844914   11.3489733561662280    1.9380593166789410    F  F  F            U41
   41.2789850492641079    0.5837924348378309    1.9380593166789410    F  F  F            U42
   34.4390798295958405    1.7855466578900987    1.9380593166789410    T  T  T            U43
   39.3854591159264018    4.1824315551420614    1.9380593166789410    F  F  F            U44
    3.5162105320509829    9.4920583288527851    0.0000000000000000    F  F  F             O1
    8.3415292521060032    7.1700188456869389    0.0000000000000000    F  F  F             O2
   13.2988569202578280    4.7894199590920072    0.0000000000000000    T  T  T             O3
   17.9518558462467652    2.4902529087688912    0.0000000000000000    T  T  T             O4
    4.8437705546808720    0.0208387775919930    0.0000000000000000    F  F  F             O5
    1.3934572286513518    5.9524228916072630    0.0000000000000000    F  F  F             O6
    6.6691481135001771    3.5968748458414410    0.0000000000000000    F  F  F             O7
   11.6801746448431221    1.1888915926260173    0.0000000000000000    T  T  T             O8
   16.8696652446687914   11.8814199269017724    0.0000000000000000    T  T  T             O9
   10.0097310679866425   10.7379853920983894    0.0000000000000000    T  T  T            O10
   15.0350921395398309    8.3369211521748792    0.0000000000000000    T  T  T            O11
    4.1395279350285925   11.3751313849136064    1.9380593166789410    F  F  F            O12
    9.1613690069501992    8.9705719082419773    1.9380593166789410    F  F  F            O13
   14.3226094847089449    6.5373035435154474    1.9380593166789410    T  T  T            O14
    1.2148895111030413    4.0732440723852283    1.9380593166789410    F  F  F            O15
    5.8695471177617344    1.7823318017075982    1.9380593166789410    F  F  F            O16
    2.3065839173730436    7.8405540140919019    1.9380593166789410    F  F  F            O17
    7.4855494254704293    5.3841661512091274    1.9380593166789410    F  F  F            O18
   12.4966542800722724    2.9757614371303402    1.9380593166789410    T  T  T            O19
   17.7762485570636990    0.6149672299900878    1.9380593166789410    T  T  T            O20
   10.8198584922537560   12.5478295993454445    1.9380593166789410    T  T  T            O21
   15.6516087384441818   10.2327380011681282    1.9380593166789410    T  T  T            O22
    1.4279645139502886   12.5018666887138803    1.9380593166789410    F  F  F            O23
    6.6766976425797901   10.1692701388308482    1.9380593166789410    F  F  F            O24
   11.7025796612835116    7.7545073705748591    1.9380593166789410    T  T  T            O25
   16.8918449624477027    5.3065961275820799    1.9380593166789410    T  T  T            O26
    3.5107865472023096    2.9083148184844974    1.9380593166789410    F  F  F            O27
   17.9511926457021822    9.0686262581668426    1.9380593166789410    T  T  T            O28
    4.8682253614092268    6.5819985872445868    1.9380593166789410    F  F  F            O29
   10.0014740884261872    4.1879357346581818    1.9380593166789410    T  T  T            O30
   15.0386739736411705    1.7692232939570103    1.9380593166789410    T  T  T            O31
    8.3252409723062559    0.5679224581755539    1.9380593166789410    F  F  F            O32
   13.2941862577574827   11.3851002430138948    1.9380593166789410    T  T  T            O33
    1.2144482588566579   10.6569643430564263    0.0000000000000000    F  F  F            O34
    5.8680091834136610    8.3510856900881194    0.0000000000000000    F  F  F            O35
   10.8394463112941128    6.0027180709076458    0.0000000000000000    T  T  T            O36
   15.6539016197582708    3.6568321245706512    0.0000000000000000    T  T  T            O37
    2.2525242611070690    1.2574675965506854    0.0000000000000000    F  F  F            O38
   17.7756428980869998    7.1930918315647627    0.0000000000000000    T  T  T            O39
    4.1279198797922101    4.8027393344133209    0.0000000000000000    F  F  F            O40
    9.1634836254952425    2.3833135623170136    0.0000000000000000    F  F  F            O41
   14.3015532515083432   13.1370019424552815    0.0000000000000000    T  T  T            O42
    7.4622789870973207   11.9548851640754883    0.0000000000000000    F  F  F            O43
   12.5027155451807879    9.5429396595563922    0.0000000000000000    T  T  T            O44
   29.1838992876294085    3.6568321245706512    0.0000000000000000    T  T  T            O45
   33.9983545960938400    6.0027180709076458    0.0000000000000000    T  T  T            O46
   38.9697917239740121    8.3510856900881194    0.0000000000000000    F  F  F            O47
   43.6233526485310250   10.6569643430564263    0.0000000000000000    F  F  F            O48
   30.5362476558790483   13.1370019424552815    0.0000000000000000    T  T  T            O49
   27.0621580093004042    7.1930918315647627    0.0000000000000000    T  T  T            O50
   32.3350853622069039    9.5429396595563922    0.0000000000000000    T  T  T            O51
   37.3755219202906233   11.9548851640754883    0.0000000000000000    F  F  F            O52
   42.5852766462808745    1.2574675965506854    0.0000000000000000    F  F  F            O53
   35.6743172818921579    2.3833135623170136    0.0000000000000000    F  F  F            O54
   40.7098810275954719    4.8027393344133209    0.0000000000000000    F  F  F            O55
   29.7991269337465106    1.7692232939570103    1.9380593166789410    T  T  T            O56
   34.8363268189612185    4.1879357346581818    1.9380593166789410    T  T  T            O57
   39.9695755459784507    6.5819985872445868    1.9380593166789410    F  F  F            O58
   26.8866082616854918    9.0686262581668426    1.9380593166789410    T  T  T            O59
   31.5436146496301895   11.3851002430138948    1.9380593166789410    T  T  T            O60
   27.9459559449399784    5.3065961275820799    1.9380593166789410    T  T  T            O61
   33.1352212461038818    7.7545073705748591    1.9380593166789410    T  T  T            O62
   38.1611032648078634   10.1692701388308482    1.9380593166789410    F  F  F            O63
   43.4098363934373666   12.5018666887138803    1.9380593166789410    F  F  F            O64
   36.5125599350816827    0.5679224581755539    1.9380593166789410    F  F  F            O65
   41.3270143601853519    2.9083148184844974    1.9380593166789410    F  F  F            O66
   27.0615523503242450    0.6149672299900878    1.9380593166789410    T  T  T            O67
   32.3411466273153962    2.9757614371303402    1.9380593166789410    T  T  T            O68
   37.3522514819175129    5.3841661512091274    1.9380593166789410    F  F  F            O69
   42.5312169900143573    7.8405540140919019    1.9380593166789410    F  F  F            O70
   29.1861921689432187   10.2327380011681282    1.9380593166789410    T  T  T            O71
   43.6229113962846284    4.0732440723852283    1.9380593166789410    F  F  F            O72
   30.5151914226787184    6.5373035435154474    1.9380593166789410    T  T  T            O73
   35.6764319004374642    8.9705719082419773    1.9380593166789410    F  F  F            O74
   40.6982729723593692   11.3751313849136064    1.9380593166789410    F  F  F            O75
   34.0179424151339163   12.5478295993454445    1.9380593166789410    T  T  T            O76
   38.9682537896259404    1.7823318017075982    1.9380593166789410    F  F  F            O77
   26.8859450611409017    2.4902529087688912    0.0000000000000000    T  T  T            O78
   31.5389439871295778    4.7894199590920072    0.0000000000000000    T  T  T            O79
   36.4962716552813902    7.1700188456869389    0.0000000000000000    F  F  F            O80
   41.3215903753366760    9.4920583288527851    0.0000000000000000    F  F  F            O81
   27.9681356627188826   11.8814199269017724    0.0000000000000000    T  T  T            O82
   43.4443436787363240    5.9524228916072630    0.0000000000000000    F  F  F            O83
   29.8027087678478431    8.3369211521748792    0.0000000000000000    T  T  T            O84
   34.8280698394007473   10.7379853920983894    0.0000000000000000    T  T  T            O85
   39.9940303527067869    0.0208387775919930    0.0000000000000000    F  F  F            O86
   33.1576262625445466    1.1888915926260173    0.0000000000000000    T  T  T            O87
   38.1686527938874889    3.5968748458414410    0.0000000000000000    F  F  F            O88
