cif2pos.py
   1.000
   42.3378009073876669    0.0000000000000000    0.0000000000000000
    0.0000000000000000   13.1421435162302842    0.0000000000000000
    0.0000000000000000    0.0000000000000000    3.8761186333578821
   U    La   O 
   43    1   88
Selective Dynamics
Cartesian
    0.0000000000000000   12.5353308799855050    0.0000000000000000    F  F  F             U1
    5.4641934286519618   10.7680793814899065    0.0000000000000000    F  F  F             U2
   10.4051441622621681    8.3658451522015334    0.0000000000000000    T  T  T             U3
   15.5417007528353697    5.9509473653197009    0.0000000000000000    T  T  T             U4
    2.2604733597658648    3.5831580874270701    0.0000000000000000    F  F  F             U5
   16.8971728847054550    9.5521686069440666    0.0000000000000000    T  T  T             U6
    3.6131385825797939    7.1702576706677803    0.0000000000000000    F  F  F             U7
    8.7650676363483164    4.7879040023082657    0.0000000000000000    F  F  F             U8
   13.6741206887730460    2.3723796656968141    0.0000000000000000    T  T  T             U9
    7.0455068051722423    1.1842577625595996    0.0000000000000000    F  F  F            U10
   12.1161915183271880   11.9425140691429235    0.0000000000000000    T  T  T            U11
    2.2617022742936794   10.1491696584137898    1.9380593166789410    F  F  F            U12
    7.0580235349395464    7.7780596048043167    1.9380593166789410    F  F  F            U13
   12.1173124676616109    5.3888861922294184    1.9380593166789410    T  T  T            U14
   16.8914927866207556    2.9628973144530821    1.9380593166789410    T  T  T            U15
    3.6066429184644777    0.5962839696534746    1.9380593166789410    F  F  F            U16
   23.1689004536938299    7.1601231955065083    1.9380593166789410    T  T  T            U17
    5.4639747244954071    4.1904866912189283    1.9380593166789410    F  F  F            U18
   10.3856677007236176    1.7832429932088165    1.9380593166789410    T  T  T            U19
   15.5659291106798658   12.5599501680355878    1.9380593166789410    T  T  T            U20
    8.7679720945392319   11.3479630037670418    1.9380593166789410    F  F  F            U21
   13.7030019346647816    8.9501844283942749    1.9380593166789410    T  T  T            U22
   28.6636802186148998    2.3723796656968141    0.0000000000000000    T  T  T            U23
   33.5727332710385369    4.7879040023082657    0.0000000000000000    F  F  F            U24
   38.7246623248084134    7.1702576706677803    0.0000000000000000    F  F  F            U25
   25.4406280226827626    9.5521686069440666    0.0000000000000000    T  T  T            U26
   40.0773275476207047    3.5831580874270701    0.0000000000000000    F  F  F            U27
   26.7961001545528497    5.9509473653197009    0.0000000000000000    T  T  T            U28
   31.9326567451249446    8.3658451522015334    0.0000000000000000    T  T  T            U29
   36.8736074787357211   10.7680793814899065    0.0000000000000000    F  F  F            U30
   30.2216093890602089   11.9425140691429235    0.0000000000000000    T  T  T            U31
   35.2922941022159762    1.1842577625595996    0.0000000000000000    F  F  F            U32
   25.4463081207671777    2.9628973144530821    1.9380593166789410    T  T  T            U33
   30.2204884397268678    5.3888861922294184    1.9380593166789410    T  T  T            U34
   35.2797773724475832    7.7780596048043167    1.9380593166789410    F  F  F            U35
   40.0760986330931743   10.1491696584137898    1.9380593166789410    F  F  F            U36
   26.7718717967080835   12.5599501680355878    1.9380593166789410    T  T  T            U37
    0.0000000000000000    5.9667500804452756    1.9380593166789410    F  F  F            U38
   28.6347989727234378    8.9501844283942749    1.9380593166789410    T  T  T            U39
   33.5698288128481650   11.3479630037670418    1.9380593166789410    F  F  F            U40
   38.7311579889237265    0.5962839696534746    1.9380593166789410    F  F  F            U41
   31.9521332066643104    1.7832429932088165    1.9380593166789410    T  T  T            U42
   36.8738261828928060    4.1904866912189283    1.9380593166789410    F  F  F            U43
   23.1689004536938299    0.5766608778963614    0.0000000000000000    T  T  T            La1
    3.5312710190864491    9.4963666581296842    0.0000000000000000    F  F  F             O1
    8.3432713868073254    7.1712777135405954    0.0000000000000000    F  F  F             O2
   13.2966556717880167    4.8177445388422262    0.0000000000000000    T  T  T             O3
   17.9466295800292350    2.6674313206979710    0.0000000000000000    T  T  T             O4
    4.8863867433859625    0.0035607944122055    0.0000000000000000    F  F  F             O5
    1.3882155113005383    5.9444834165683140    0.0000000000000000    F  F  F             O6
    6.6846133375784715    3.5822991922354483    0.0000000000000000    F  F  F             O7
   11.6690038957766919    1.1848808997448808    0.0000000000000000    T  T  T             O8
   16.8349300743820258   11.8491059088252122    0.0000000000000000    T  T  T             O9
   10.0165036809663128   10.7304918808175742    0.0000000000000000    T  T  T            O10
   15.0267978865498630    8.3009870435346453    0.0000000000000000    T  T  T            O11
    4.1337918643753797   11.3837347793087940    1.9380593166789410    F  F  F            O12
    9.1634749845945453    8.9714394089216505    1.9380593166789410    F  F  F            O13
   14.2919016405435340    6.5315054644169832    1.9380593166789410    T  T  T            O14
    1.2188358591637825    4.0495768400859253    1.9380593166789410    F  F  F            O15
    5.8646599627355585    1.7657604171672714    1.9380593166789410    F  F  F            O16
    2.3534291758529005    7.8316946444925915    1.9380593166789410    F  F  F            O17
    7.4797081734067286    5.3864411326233181    1.9380593166789410    F  F  F            O18
   12.4699131305631177    2.9956470420373162    1.9380593166789410    T  T  T            O19
   17.5993656340642595    0.7490043772821001    1.9380593166789410    T  T  T            O20
   10.8121138599334934   12.5529925285109218    1.9380593166789410    T  T  T            O21
   15.6259774199480557   10.2074712012283797    1.9380593166789410    T  T  T            O22
    1.3903564121536074   12.5163527852034608    1.9380593166789410    F  F  F            O23
    6.6808687105494204   10.1739990229064912    1.9380593166789410    F  F  F            O24
   11.7013770669524604    7.7659300766711770    1.9380593166789410    T  T  T            O25
   16.7910838940433571    5.2301488811048849    1.9380593166789410    T  T  T            O26
    3.5375703019719342    2.9287846629810668    1.9380593166789410    F  F  F            O27
   17.9440079317229539    9.0634353370176619    1.9380593166789410    T  T  T            O28
    4.8979952136512903    6.5874272269786456    1.9380593166789410    F  F  F            O29
    9.9868402188869130    4.1917640158294027    1.9380593166789410    T  T  T            O30
   14.9669066359291989    1.7763867607718737    1.9380593166789410    T  T  T            O31
    8.3232185942056525    0.5707985208000855    1.9380593166789410    F  F  F            O32
   13.2741618737705949   11.3773907400113430    1.9380593166789410    T  T  T            O33
    1.2181303659718312   10.6221332740851384    0.0000000000000000    F  F  F            O34
    5.8772620913400324    8.3590460039746475    0.0000000000000000    F  F  F            O35
   10.8328580281272426    6.0071287230875958    0.0000000000000000    T  T  T            O36
   15.6189427672871215    3.5935471034732545    0.0000000000000000    T  T  T            O37
    2.3532512270952184    1.2661331151481912    0.0000000000000000    F  F  F            O38
   17.7725913516665699    7.1557340735747195    0.0000000000000000    T  T  T            O39
    4.1312771706089189    4.8203878383101184    0.0000000000000000    F  F  F            O40
    9.1664503230919312    2.3833321917989880    0.0000000000000000    F  F  F            O41
   14.2843125014203380   13.1159586069240799    0.0000000000000000    T  T  T            O42
    7.4817150240460322   11.9502003243219477    0.0000000000000000    F  F  F            O43
   12.5072958850269220    9.5436843113202592    0.0000000000000000    T  T  T            O44
   26.7188581401016449    3.5935471034732545    0.0000000000000000    T  T  T            O45
   31.5049428792615203    6.0071287230875958    0.0000000000000000    T  T  T            O46
   36.4605388160476309    8.3590460039746475    0.0000000000000000    F  F  F            O47
   41.1196705414161059   10.6221332740851384    0.0000000000000000    F  F  F            O48
   28.0534884059667782   13.1159586069240799    0.0000000000000000    T  T  T            O49
   24.5652095557197399    7.1557340735747195    0.0000000000000000    T  T  T            O50
   29.8305050223604766    9.5436843113202592    0.0000000000000000    T  T  T            O51
   34.8560858833418976   11.9502003243219477    0.0000000000000000    F  F  F            O52
   39.9845496802924458    1.2661331151481912    0.0000000000000000    F  F  F            O53
   33.1713505842954675    2.3833321917989880    0.0000000000000000    F  F  F            O54
   38.2065237367792889    4.8203878383101184    0.0000000000000000    F  F  F            O55
   27.3708942714573737    1.7763867607718737    1.9380593166789410    T  T  T            O56
   32.3509606885002157    4.1917640158294027    1.9380593166789410    T  T  T            O57
   37.4398056937369148    6.5874272269786456    1.9380593166789410    F  F  F            O58
   24.3937929756644252    9.0634353370176619    1.9380593166789410    T  T  T            O59
   29.0636390336165213   11.3773907400113430    1.9380593166789410    T  T  T            O60
   25.5467170133448640    5.2301488811048849    1.9380593166789410    T  T  T            O61
   30.6364238404338423    7.7659300766711770    1.9380593166789410    T  T  T            O62
   35.6569321968377011   10.1739990229064912    1.9380593166789410    F  F  F            O63
   40.9474444952332348   12.5163527852034608    1.9380593166789410    F  F  F            O64
   34.0145823131822880    0.5707985208000855    1.9380593166789410    F  F  F            O65
   38.8002306054165516    2.9287846629810668    1.9380593166789410    F  F  F            O66
   24.7384352733242245    0.7490043772821001    1.9380593166789410    T  T  T            O67
   29.8678877768250821    2.9956470420373162    1.9380593166789410    T  T  T            O68
   34.8580927339814863    5.3864411326233181    1.9380593166789410    F  F  F            O69
   39.9843717315339475    7.8316946444925915    1.9380593166789410    F  F  F            O70
   26.7118234874396023   10.2074712012283797    1.9380593166789410    T  T  T            O71
   41.1189650482236146    4.0495768400859253    1.9380593166789410    F  F  F            O72
   28.0458992668438540    6.5315054644169832    1.9380593166789410    T  T  T            O73
   33.1743259227934075    8.9714394089216505    1.9380593166789410    F  F  F            O74
   38.2040090430130945   11.3837347793087940    1.9380593166789410    F  F  F            O75
   31.5256870474544506   12.5529925285109218    1.9380593166789410    T  T  T            O76
   36.4731409446521155    1.7657604171672714    1.9380593166789410    F  F  F            O77
   24.3911713273581512    2.6674313206979710    0.0000000000000000    T  T  T            O78
   29.0411452355985595    4.8177445388422262    0.0000000000000000    T  T  T            O79
   33.9945295205797962    7.1712777135405954    0.0000000000000000    F  F  F            O80
   38.8065298883009433    9.4963666581296842    0.0000000000000000    F  F  F            O81
   25.5028708330056375   11.8491059088252122    0.0000000000000000    T  T  T            O82
   40.9495853960871301    5.9444834165683140    0.0000000000000000    F  F  F            O83
   27.3110030208386156    8.3009870435346453    0.0000000000000000    T  T  T            O84
   32.3212972264213576   10.7304918808175742    0.0000000000000000    T  T  T            O85
   37.4514141640008944    0.0035607944122055    0.0000000000000000    F  F  F            O86
   30.6687970116117938    1.1848808997448808    0.0000000000000000    T  T  T            O87
   35.6531875698097451    3.5822991922354483    0.0000000000000000    F  F  F            O88
