cif2pos.py
   1.000
   43.8378009073876669    0.0000000000000000    0.0000000000000000
    0.0000000000000000   13.1421435162302842    0.0000000000000000
    0.0000000000000000    0.0000000000000000    3.8761186333578821
   U    O 
   44   88
Selective Dynamics
Cartesian
    0.0000000000000000   12.5551636873405776    0.0000000000000000    F  F  F             U1
    5.4556193949366456   10.7650118679051516    0.0000000000000000    F  F  F             U2
   10.4048822310196503    8.3614122636818404    0.0000000000000000    T  T  T             U3
   15.5951848087538423    5.9743136483512425    0.0000000000000000    T  T  T             U4
    2.2419553594642094    3.5835709747557116    0.0000000000000000    F  F  F             U5
   16.9240382186980654    9.5607335725832900    0.0000000000000000    T  T  T             U6
    3.5869503846652377    7.1643941168445258    0.0000000000000000    F  F  F             U7
    8.7664271818685293    4.7865274781975184    0.0000000000000000    F  F  F             U8
   13.7151259357491870    2.3872923175265810    0.0000000000000000    T  T  T             U9
    7.0388639731294518    1.1886095507572638    0.0000000000000000    F  F  F            U10
   12.1167571663365674   11.9497995085851354    0.0000000000000000    T  T  T            U11
    2.2562447583645913   10.1626129082921235    1.9380593166789410    F  F  F            U12
    7.0515223280738377    7.7723041446955925    1.9380593166789410    F  F  F            U13
   12.1278750098566430    5.3821097424703677    1.9380593166789410    T  T  T            U14
   16.9269919369294790    2.9827641868538479    1.9380593166789410    T  T  T            U15
    3.5588158581235505    0.5837924348378309    1.9380593166789410    F  F  F            U16
   24.6689004536938299    7.1323589743255820    1.9380593166789410    T  T  T            U17
    5.4523417914615386    4.1824315551420614    1.9380593166789410    F  F  F            U18
   10.3987210777918282    1.7855466578900987    1.9380593166789410    T  T  T            U19
   15.5800027376662058   12.5526185972609898    1.9380593166789410    T  T  T            U20
    8.7618697554031879   11.3489733561662280    1.9380593166789410    F  F  F            U21
   13.7151923676295748    8.9508375350776657    1.9380593166789410    T  T  T            U22
   24.6689004536938299    0.5577946303503825    0.0000000000000000    T  T  T            U23
   30.1226749716384816    2.3872923175265810    0.0000000000000000    T  T  T            U24
   35.0713737255191376    4.7865274781975184    0.0000000000000000    F  F  F            U25
   40.2508505227224376    7.1643941168445258    0.0000000000000000    F  F  F            U26
   26.9137626886898751    9.5607335725832900    0.0000000000000000    T  T  T            U27
   41.5958455479234530    3.5835709747557116    0.0000000000000000    F  F  F            U28
   28.2426160986340982    5.9743136483512425    0.0000000000000000    T  T  T            U29
   33.4329186763680255    8.3614122636818404    0.0000000000000000    T  T  T            U30
   38.3821815124510266   10.7650118679051516    0.0000000000000000    F  F  F            U31
   31.7210437410511013   11.9497995085851354    0.0000000000000000    T  T  T            U32
   36.7989369342582222    1.1886095507572638    0.0000000000000000    F  F  F            U33
   26.9108089704581808    2.9827641868538479    1.9380593166789410    T  T  T            U34
   31.7099258975310470    5.3821097424703677    1.9380593166789410    T  T  T            U35
   36.7862785793138372    7.7723041446955925    1.9380593166789410    F  F  F            U36
   41.5815561490230792   10.1626129082921235    1.9380593166789410    F  F  F            U37
   28.2577981697214753   12.5526185972609898    1.9380593166789410    T  T  T            U38
    0.0000000000000000    5.9944984735779778    1.9380593166789410    F  F  F            U39
   30.1226085397583674    8.9508375350776657    1.9380593166789410    T  T  T            U40
   35.0759311519844914   11.3489733561662280    1.9380593166789410    F  F  F            U41
   40.2789850492641079    0.5837924348378309    1.9380593166789410    F  F  F            U42
   33.4390798295958405    1.7855466578900987    1.9380593166789410    T  T  T            U43
   38.3854591159264018    4.1824315551420614    1.9380593166789410    F  F  F            U44
    3.5162105320509833    9.4920583288527851    0.0000000000000000    F  F  F             O1
    8.3415292521060032    7.1700188456869389    0.0000000000000000    F  F  F             O2
   13.2988569202578262    4.7894199590920072    0.0000000000000000    T  T  T             O3
   17.9518558462467652    2.4902529087688912    0.0000000000000000    T  T  T             O4
    4.8437705546808720    0.0208387775919930    0.0000000000000000    F  F  F             O5
    1.3934572286513516    5.9524228916072630    0.0000000000000000    F  F  F             O6
    6.6691481135001771    3.5968748458414410    0.0000000000000000    F  F  F             O7
   11.6801746448431221    1.1888915926260173    0.0000000000000000    T  T  T             O8
   16.8696652446687914   11.8814199269017724    0.0000000000000000    T  T  T             O9
   10.0097310679866425   10.7379853920983894    0.0000000000000000    T  T  T            O10
   15.0350921395398291    8.3369211521748792    0.0000000000000000    T  T  T            O11
    4.1395279350285925   11.3751313849136064    1.9380593166789410    F  F  F            O12
    9.1613690069501992    8.9705719082419773    1.9380593166789410    F  F  F            O13
   14.3226094847089449    6.5373035435154474    1.9380593166789410    T  T  T            O14
    1.2148895111030413    4.0732440723852283    1.9380593166789410    F  F  F            O15
    5.8695471177617335    1.7823318017075982    1.9380593166789410    F  F  F            O16
    2.3065839173730436    7.8405540140919019    1.9380593166789410    F  F  F            O17
    7.4855494254704285    5.3841661512091274    1.9380593166789410    F  F  F            O18
   12.4966542800722724    2.9757614371303402    1.9380593166789410    T  T  T            O19
   17.7762485570636990    0.6149672299900878    1.9380593166789410    T  T  T            O20
   10.8198584922537560   12.5478295993454445    1.9380593166789410    T  T  T            O21
   15.6516087384441782   10.2327380011681282    1.9380593166789410    T  T  T            O22
    1.4279645139502886   12.5018666887138803    1.9380593166789410    F  F  F            O23
    6.6766976425797901   10.1692701388308482    1.9380593166789410    F  F  F            O24
   11.7025796612835133    7.7545073705748591    1.9380593166789410    T  T  T            O25
   16.8918449624477027    5.3065961275820799    1.9380593166789410    T  T  T            O26
    3.5107865472023096    2.9083148184844974    1.9380593166789410    F  F  F            O27
   17.9511926457021822    9.0686262581668426    1.9380593166789410    T  T  T            O28
    4.8682253614092268    6.5819985872445868    1.9380593166789410    F  F  F            O29
   10.0014740884261872    4.1879357346581818    1.9380593166789410    T  T  T            O30
   15.0386739736411705    1.7692232939570103    1.9380593166789410    T  T  T            O31
    8.3252409723062559    0.5679224581755539    1.9380593166789410    F  F  F            O32
   13.2941862577574827   11.3851002430138948    1.9380593166789410    T  T  T            O33
    1.2144482588566579   10.6569643430564263    0.0000000000000000    F  F  F            O34
    5.8680091834136610    8.3510856900881194    0.0000000000000000    F  F  F            O35
   10.8394463112941128    6.0027180709076458    0.0000000000000000    T  T  T            O36
   15.6539016197582690    3.6568321245706512    0.0000000000000000    T  T  T            O37
    2.2525242611070690    1.2574675965506854    0.0000000000000000    F  F  F            O38
   17.7756428980869998    7.1930918315647627    0.0000000000000000    T  T  T            O39
    4.1279198797922101    4.8027393344133209    0.0000000000000000    F  F  F            O40
    9.1634836254952425    2.3833135623170136    0.0000000000000000    F  F  F            O41
   14.3015532515083414   13.1370019424552815    0.0000000000000000    T  T  T            O42
    7.4622789870973207   11.9548851640754883    0.0000000000000000    F  F  F            O43
   12.5027155451807879    9.5429396595563922    0.0000000000000000    T  T  T            O44
   28.1838992876294050    3.6568321245706512    0.0000000000000000    T  T  T            O45
   32.9983545960938400    6.0027180709076458    0.0000000000000000    T  T  T            O46
   37.9697917239740050    8.3510856900881194    0.0000000000000000    F  F  F            O47
   42.6233526485310179   10.6569643430564263    0.0000000000000000    F  F  F            O48
   29.5362476558790483   13.1370019424552815    0.0000000000000000    T  T  T            O49
   26.0621580093003971    7.1930918315647627    0.0000000000000000    T  T  T            O50
   31.3350853622069003    9.5429396595563922    0.0000000000000000    T  T  T            O51
   36.3755219202906233   11.9548851640754883    0.0000000000000000    F  F  F            O52
   41.5852766462808745    1.2574675965506854    0.0000000000000000    F  F  F            O53
   34.6743172818921579    2.3833135623170136    0.0000000000000000    F  F  F            O54
   39.7098810275954648    4.8027393344133209    0.0000000000000000    F  F  F            O55
   28.7991269337465070    1.7692232939570103    1.9380593166789410    T  T  T            O56
   33.8363268189612114    4.1879357346581818    1.9380593166789410    T  T  T            O57
   38.9695755459784507    6.5819985872445868    1.9380593166789410    F  F  F            O58
   25.8866082616854918    9.0686262581668426    1.9380593166789410    T  T  T            O59
   30.5436146496301930   11.3851002430138948    1.9380593166789410    T  T  T            O60
   26.9459559449399784    5.3065961275820799    1.9380593166789410    T  T  T            O61
   32.1352212461038818    7.7545073705748591    1.9380593166789410    T  T  T            O62
   37.1611032648078705   10.1692701388308482    1.9380593166789410    F  F  F            O63
   42.4098363934373666   12.5018666887138803    1.9380593166789410    F  F  F            O64
   35.5125599350816827    0.5679224581755539    1.9380593166789410    F  F  F            O65
   40.3270143601853519    2.9083148184844974    1.9380593166789410    F  F  F            O66
   26.0615523503242450    0.6149672299900878    1.9380593166789410    T  T  T            O67
   31.3411466273153962    2.9757614371303402    1.9380593166789410    T  T  T            O68
   36.3522514819175129    5.3841661512091274    1.9380593166789410    F  F  F            O69
   41.5312169900143573    7.8405540140919019    1.9380593166789410    F  F  F            O70
   28.1861921689432151   10.2327380011681282    1.9380593166789410    T  T  T            O71
   42.6229113962846213    4.0732440723852283    1.9380593166789410    F  F  F            O72
   29.5151914226787220    6.5373035435154474    1.9380593166789410    T  T  T            O73
   34.6764319004374642    8.9705719082419773    1.9380593166789410    F  F  F            O74
   39.6982729723593621   11.3751313849136064    1.9380593166789410    F  F  F            O75
   33.0179424151339163   12.5478295993454445    1.9380593166789410    T  T  T            O76
   37.9682537896259333    1.7823318017075982    1.9380593166789410    F  F  F            O77
   25.8859450611409017    2.4902529087688912    0.0000000000000000    T  T  T            O78
   30.5389439871295707    4.7894199590920072    0.0000000000000000    T  T  T            O79
   35.4962716552813831    7.1700188456869389    0.0000000000000000    F  F  F            O80
   40.3215903753366760    9.4920583288527851    0.0000000000000000    F  F  F            O81
   26.9681356627188791   11.8814199269017724    0.0000000000000000    T  T  T            O82
   42.4443436787363240    5.9524228916072630    0.0000000000000000    F  F  F            O83
   28.8027087678478395    8.3369211521748792    0.0000000000000000    T  T  T            O84
   33.8280698394007473   10.7379853920983894    0.0000000000000000    T  T  T            O85
   38.9940303527067869    0.0208387775919930    0.0000000000000000    F  F  F            O86
   32.1576262625445466    1.1888915926260173    0.0000000000000000    T  T  T            O87
   37.1686527938874889    3.5968748458414410    0.0000000000000000    F  F  F            O88
