cif2pos.py
   1.000
   39.8378009073876669    0.0000000000000000    0.0000000000000000
    0.0000000000000000   13.1421435162302842    0.0000000000000000
    0.0000000000000000    0.0000000000000000    3.8761186333578821
   U    O 
   44   88
Selective Dynamics
Cartesian
    0.0000000000000000   12.5551636873405776    0.0000000000000000    F  F  F             U1
    5.4556193949365461   10.7650118679051516    0.0000000000000000    F  F  F             U2
   10.4435218813955242    8.3638788398676169    0.0000000000000000    T  T  T             U3
   15.6090890218979439    5.9172890484855216    0.0000000000000000    T  T  T             U4
    2.2419553594641992    3.5835709747557116    0.0000000000000000    F  F  F             U5
   17.1374053099552022    9.4272709405922779    0.0000000000000000    T  T  T             U6
    3.5869503846651156    7.1643941168445258    0.0000000000000000    F  F  F             U7
    8.7664271818684725    4.7865274781975184    0.0000000000000000    F  F  F             U8
   13.7968717701693144    2.3231552124122596    0.0000000000000000    T  T  T             U9
    7.0388639731293354    1.1886095507572638    0.0000000000000000    F  F  F            U10
   12.1867497065618497   11.9432252889849355    0.0000000000000000    T  T  T            U11
    2.2562447583647329   10.1626129082921235    1.9380593166789410    F  F  F            U12
    7.0515223280739816    7.7723041446955925    1.9380593166789410    F  F  F            U13
   12.1768513744076365    5.3531531520043059    1.9380593166789410    T  T  T            U14
   17.1377426689371539    2.8753987948601765    1.9380593166789410    T  T  T            U15
    3.5588158581236740    0.5837924348378309    1.9380593166789410    F  F  F            U16
   20.8411961004232325    7.1003602775886066    1.9380593166789410    T  T  T            U17
    5.4523417914615990    4.1824315551420614    1.9380593166789410    F  F  F            U18
   10.4284758895516187    1.7927749330367628    1.9380593166789410    T  T  T            U19
   15.6315904336864495   12.4587509066956201    1.9380593166789410    T  T  T            U20
    8.7618697554032980   11.3489733561662280    1.9380593166789410    F  F  F            U21
   13.7981458586534771    8.9011737320222704    1.9380593166789410    T  T  T            U22
   20.8982793405955789    0.4895603692089566    0.0000000000000000    T  T  T            U23
   26.0208141678412908    2.4986313535027698    0.0000000000000000    T  T  T            U24
   31.0713737255191944    4.7865274781975184    0.0000000000000000    F  F  F            U25
   36.2508505227225513    7.1643941168445258    0.0000000000000000    F  F  F            U26
   22.6807527826165476    9.7549629953237122    0.0000000000000000    T  T  T            U27
   37.5958455479234672    3.5835709747557116    0.0000000000000000    F  F  F            U28
   24.2414932732536101    6.1286545620869131    0.0000000000000000    T  T  T            U29
   29.4116142474261650    8.3845292138408158    0.0000000000000000    T  T  T            U30
   34.3821815124511261   10.7650118679051516    0.0000000000000000    F  F  F            U31
   27.6962910553334360   12.0172443218342870    0.0000000000000000    T  T  T            U32
   32.7989369342583359    1.1886095507572638    0.0000000000000000    F  F  F            U33
   22.6947811359762746    3.1785761914218909    1.9380593166789410    T  T  T            U34
   27.6691091570367647    5.4550973443842352    1.9380593166789410    T  T  T            U35
   32.7862785793139793    7.7723041446955925    1.9380593166789410    F  F  F            U36
   37.5815561490229300   10.1626129082921235    1.9380593166789410    F  F  F            U37
   24.2783881533746602   12.6757586848859720    1.9380593166789410    T  T  T            U38
    0.0000000000000000    5.9944984735779778    1.9380593166789410    F  F  F            U39
   26.0127384065674150    9.0616747289249986    1.9380593166789410    T  T  T            U40
   31.0759311519843706   11.3489733561662280    1.9380593166789410    F  F  F            U41
   36.2789850492639943    0.5837924348378309    1.9380593166789410    F  F  F            U42
   29.4138145931402555    1.8139792172876170    1.9380593166789410    T  T  T            U43
   34.3854591159263592    4.1824315551420614    1.9380593166789410    F  F  F            U44
    3.5162105320511068    9.4920583288527851    0.0000000000000000    F  F  F             O1
    8.3415292521058628    7.1700188456869389    0.0000000000000000    F  F  F             O2
   13.4146118360767836    4.6605869081880282    0.0000000000000000    T  T  T             O3
   18.3128785870255797    2.9799123345981338    0.0000000000000000    T  T  T             O4
    4.8437705546808667    0.0208387775919930    0.0000000000000000    F  F  F             O5
    1.3934572286513300    5.9524228916072630    0.0000000000000000    F  F  F             O6
    6.6691481135001123    3.5968748458414410    0.0000000000000000    F  F  F             O7
   11.7879987898332477    1.2354136038768100    0.0000000000000000    T  T  T             O8
   16.6704337562420335   11.6004977805511800    0.0000000000000000    T  T  T             O9
    9.9877694497596501   10.7884707723087363    0.0000000000000000    T  T  T            O10
   14.9153887677200618    8.3011280410207462    0.0000000000000000    T  T  T            O11
    4.1395279350284566   11.3751313849136064    1.9380593166789410    F  F  F            O12
    9.1613690069503182    8.9705719082419773    1.9380593166789410    F  F  F            O13
   14.2663061279401386    6.4757855435669764    1.9380593166789410    T  T  T            O14
    1.2148895111029596    4.0732440723852283    1.9380593166789410    F  F  F            O15
    5.8695471177616412    1.7823318017075982    1.9380593166789410    F  F  F            O16
    2.3065839173730502    7.8405540140919019    1.9380593166789410    F  F  F            O17
    7.4855494254704427    5.3841661512091274    1.9380593166789410    F  F  F            O18
   12.5135313785188824    2.9712319902806983    1.9380593166789410    T  T  T            O19
   17.3425505351464189    0.8183720661097720    1.9380593166789410    T  T  T            O20
   10.8888917151585023   12.5923211482515107    1.9380593166789410    T  T  T            O21
   15.8085275233493832    9.9554980070489094    1.9380593166789410    T  T  T            O22
    1.4279645139503863   12.5018666887138803    1.9380593166789410    F  F  F            O23
    6.6766976425798559   10.1692701388308464    1.9380593166789410    F  F  F            O24
   11.6890899091129992    7.7310172035357203    1.9380593166789410    T  T  T            O25
   16.6622901593800279    4.9936698777808779    1.9380593166789410    T  T  T            O26
    3.5107865472022306    2.9083148184844969    1.9380593166789410    F  F  F            O27
   18.3420341538151241    9.4936370800699610    1.9380593166789410    T  T  T            O28
    4.8682253614091717    6.5819985872445868    1.9380593166789410    F  F  F            O29
    9.9932231147502151    4.1606034669130798    1.9380593166789410    T  T  T            O30
   14.8504280043400652    1.7952962230544647    1.9380593166789410    T  T  T            O31
    8.3252409723062009    0.5679224581755539    1.9380593166789410    F  F  F            O32
   13.4245118717292762   11.3862797676952869    1.9380593166789410    T  T  T            O33
    1.2144482588567340   10.6569643430564263    0.0000000000000000    F  F  F            O34
    5.8680091834136698    8.3510856900881194    0.0000000000000000    F  F  F            O35
   10.8755281382624460    5.9480777587825884    0.0000000000000000    T  T  T            O36
   15.7434496180149139    3.3091628143775051    0.0000000000000000    T  T  T            O37
    2.2525242611070304    1.2574675965506854    0.0000000000000000    F  F  F            O38
   17.3547322965506119    7.3506847045760741    0.0000000000000000    T  T  T            O39
    4.1279198797923549    4.8027393344133209    0.0000000000000000    F  F  F            O40
    9.1634836254953083    2.3833135623170136    0.0000000000000000    F  F  F            O41
   14.3077900464631185    0.0488153306966545    0.0000000000000000    T  T  T            O42
    7.4622789870973811   11.9548851640754883    0.0000000000000000    F  F  F            O43
   12.4618448576159722    9.6033879191164946    0.0000000000000000    T  T  T            O44
   23.9420955978937897    3.7237618629931735    0.0000000000000000    T  T  T            O45
   28.9530653514360203    6.0270802422764413    0.0000000000000000    T  T  T            O46
   33.9697917239739979    8.3510856900881194    0.0000000000000000    F  F  F            O47
   38.6233526485309326   10.6569643430564263    0.0000000000000000    F  F  F            O48
   25.4834879627146513    0.0906815188247825    0.0000000000000000    T  T  T            O49
   21.9471548474965488    7.4411567272391483    0.0000000000000000    T  T  T            O50
   27.2480927883349011    9.6342323643798728    0.0000000000000000    T  T  T            O51
   32.3755219202905806   11.9548851640754883    0.0000000000000000    F  F  F            O52
   37.5852766462809242    1.2574675965506854    0.0000000000000000    F  F  F            O53
   30.6743172818920691    2.3833135623170136    0.0000000000000000    F  F  F            O54
   35.7098810275956069    4.8027393344133209    0.0000000000000000    F  F  F            O55
   24.6731493085721212    1.9023589861758692    1.9380593166789410    T  T  T            O56
   29.7981407257427406    4.2057890636775932    1.9380593166789410    T  T  T            O57
   34.9695755459785005    6.5819985872445868    1.9380593166789410    F  F  F            O58
   21.4485630746247722    9.3020560017457736    1.9380593166789410    T  T  T            O59
   26.4184777293432909   11.4968449070888532    1.9380593166789410    T  T  T            O60
   22.5133662982271723    5.4289638221829914    1.9380593166789410    T  T  T            O61
   28.1154178458969319    7.8458616314794849    1.9380593166789410    T  T  T            O62
   33.1611032648078137   10.1692701388308464    1.9380593166789410    F  F  F            O63
   38.4098363934372813   12.5018666887138803    1.9380593166789410    F  F  F            O64
   31.5125599350817538    0.5679224581755539    1.9380593166789410    F  F  F            O65
   36.3270143601854372    2.9083148184844969    1.9380593166789410    F  F  F            O66
   22.0173751854489019    0.7551424867790849    1.9380593166789410    T  T  T            O67
   27.2512967834068291    3.0257439806460784    1.9380593166789410    T  T  T            O68
   32.3522514819175129    5.3841661512091274    1.9380593166789410    F  F  F            O69
   37.5312169900143289    7.8405540140919019    1.9380593166789410    F  F  F            O70
   23.9350019376154677   10.4087407111687540    1.9380593166789410    T  T  T            O71
   38.6229113962847066    4.0732440723852283    1.9380593166789410    F  F  F            O72
   25.5559973284586626    6.7302411934431197    1.9380593166789410    T  T  T            O73
   30.6764319004373469    8.9705719082419773    1.9380593166789410    F  F  F            O74
   35.6982729723592129   11.3751313849136064    1.9380593166789410    F  F  F            O75
   28.9575330879670751   12.5807870577875391    1.9380593166789410    T  T  T            O76
   33.9682537896260257    1.7823318017075982    1.9380593166789410    F  F  F            O77
   21.4429123505433097    2.6345624554603795    0.0000000000000000    T  T  T            O78
   26.4585258737542688    4.8426651131717708    0.0000000000000000    T  T  T            O79
   31.4962716552815145    7.1700188456869389    0.0000000000000000    F  F  F            O80
   36.3215903753365623    9.4920583288527851    0.0000000000000000    F  F  F            O81
   22.7794494252950557   12.0969148034525951    0.0000000000000000    T  T  T            O82
   38.4443436787363382    5.9524228916072630    0.0000000000000000    F  F  F            O83
   24.6482322503646820    8.5985793239721424    0.0000000000000000    T  T  T            O84
   29.8028104638313529   10.7863761010520207    0.0000000000000000    T  T  T            O85
   34.9940303527068011    0.0208387775919930    0.0000000000000000    F  F  F            O86
   28.1077956875755213    1.2430721115226941    0.0000000000000000    T  T  T            O87
   33.1686527938875528    3.5968748458414410    0.0000000000000000    F  F  F            O88
