cif2pos.py
   1.000
   44.6686756529434632    0.0000000000000000    0.0000000000000000
    0.0000000000000000    6.7963468884617413    0.0000000000000000
    0.0000000000000000    0.0000000000000000    3.8419033096887718
   U    O 
   24   48
Selective Dynamics
Cartesian
    1.6675116306512623    6.7419070975532431    0.0000000000000000    F  F  F             U1
    4.9051169934369874    2.2437626276601375    0.0000000000000000    F  F  F             U2
    8.1597130759896128    4.5417214769248258    0.0000000000000000    F  F  F             U3
   11.4111635988941593    0.0445416567872909    0.0000000000000000    T  T  T             U4
   14.6677222577827280    2.3482332145668932    0.0000000000000000    T  T  T             U5
   17.8774222169784665    4.6364020905817904    0.0000000000000000    T  T  T             U6
   26.7439782523771541    0.0551796783456365    0.0000000000000000    T  T  T             U7
   29.9875188413195666    4.5554036172414829    0.0000000000000000    T  T  T             U8
   33.2409000603393849    2.2565385596687588    0.0000000000000000    T  T  T             U9
   36.4934336947911717    6.7517003380002141    0.0000000000000000    F  F  F            U10
   39.7484929390711841    4.4434568185712138    0.0000000000000000    F  F  F            U11
   42.9639755625725428    2.1504674513234425    0.0000000000000000    F  F  F            U12
    1.6578126628584584    3.3451644564799832    1.9209516548443859    F  F  F            U13
   26.7439858273646145    3.4533663908339793    1.9209516548443859    T  T  T            U14
   29.9874571346796230    1.1572165651009709    1.9209516548443859    T  T  T            U15
   11.4113387154396975    3.4425818998737885    1.9209516548443859    T  T  T            U16
    4.9068679471478331    5.6407354761538135    1.9209516548443859    F  F  F            U17
   33.2409526026668161    5.6549088836367591    1.9209516548443859    T  T  T            U18
   14.6676520014318044    5.7464282439585386    1.9209516548443859    T  T  T            U19
   36.4921509004597908    3.3539693927653627    1.9209516548443859    F  F  F            U20
    8.1588776667574709    1.1437695281765226    1.9209516548443859    F  F  F            U21
   39.7501791681470706    1.0496466257898514    1.9209516548443859    F  F  F            U22
   17.8774456889994156    1.2382239620133439    1.9209516548443859    T  T  T            U23
   42.9629082948984831    5.5503239991675297    1.9209516548443859    F  F  F            U24
    0.8805448507549116    4.4612486561564015    0.0000000000000000    F  F  F             O1
    2.4946006740862749    2.2232165390275274    0.0000000000000000    F  F  F             O2
    4.1084628809351527    6.7688019730414579    0.0000000000000000    F  F  F             O3
    5.7438818290695179    4.5206824783262709    0.0000000000000000    F  F  F             O4
    7.3638382732402512    2.2700227464753699    0.0000000000000000    F  F  F             O5
    8.9975914456720236    0.0225103294413850    0.0000000000000000    F  F  F             O6
   10.6161189168164203    4.5680209706531496    0.0000000000000000    T  T  T             O7
   12.2474751638726769    2.3210984712433378    0.0000000000000000    T  T  T             O8
   13.8741375676743868    0.0745295304374562    0.0000000000000000    T  T  T             O9
   15.5201675665848740    4.6279477700697971    0.0000000000000000    T  T  T            O10
   17.0681387064893357    2.3802979652020917    0.0000000000000000    T  T  T            O11
   18.6673071124750720    0.1192276092985328    0.0000000000000000    T  T  T            O12
   25.9662838152448963    2.3449868976388490    0.0000000000000000    T  T  T            O13
   27.5803455769239783    4.5774453404914324    0.0000000000000000    T  T  T            O14
   29.1910491325163512    0.0312099755386348    0.0000000000000000    T  T  T            O15
   30.8258053591480987    2.2781653028967583    0.0000000000000000    T  T  T            O16
   32.4462206973608502    4.5295706831054856    0.0000000000000000    T  T  T            O17
   34.0798785761976148    6.7752325669758111    0.0000000000000000    T  T  T            O18
   35.6974151719784984    2.2287562700781134    0.0000000000000000    F  F  F            O19
   37.3285173456121413    4.4750416250658258    0.0000000000000000    F  F  F            O20
   38.9584284164186840    6.7143377595801486    0.0000000000000000    F  F  F            O21
   40.5887179949748571    2.1711602404991939    0.0000000000000000    F  F  F            O22
   42.1625319133668128    4.3984338525742972    0.0000000000000000    F  F  F            O23
   43.7428934610650586    6.6900361516079370    0.0000000000000000    F  F  F            O24
   10.6162207834421682    1.1699579030421379    1.9209516548443859    T  T  T            O25
   25.9662632918226173    5.7431530968361875    1.9209516548443859    T  T  T            O26
   27.5803009503806926    1.1792950003439873    1.9209516548443859    T  T  T            O27
    0.8874655021098885    1.0470285032498499    1.9209516548443859    F  F  F            O28
   29.1910871005347978    3.4293106291998146    1.9209516548443859    T  T  T            O29
   12.2473712624418898    5.7191884089959117    1.9209516548443859    T  T  T            O30
    5.7439645429765029    1.1214962620842817    1.9209516548443859    F  F  F            O31
   30.8257497813071453    5.6762959381005142    1.9209516548443859    T  T  T            O32
   32.4462505282024765    1.1311610705605457    1.9209516548443859    T  T  T            O33
   13.8742051185358832    3.4726474826518858    1.9209516548443859    T  T  T            O34
    7.3658098799399898    5.6677151600823183    1.9209516548443859    F  F  F            O35
   34.0793064029831712    3.3772257833063493    1.9209516548443859    T  T  T            O36
   35.6976331964791456    5.6274882800747772    1.9209516548443859    F  F  F            O37
    4.1097895758633252    3.3673132434264441    1.9209516548443859    F  F  F            O38
   37.3295559747067429    1.0768553807464514    1.9209516548443859    F  F  F            O39
   15.5202291263112802    1.2297410528510793    1.9209516548443859    T  T  T            O40
   38.9529763572774144    3.3261398217717519    1.9209516548443859    F  F  F            O41
   17.0681139055929414    5.7784647524991630    1.9209516548443859    T  T  T            O42
    2.5048781130942519    5.6147458795447802    1.9209516548443859    F  F  F            O43
   40.6159112130989399    5.5591018729039323    1.9209516548443859    F  F  F            O44
   42.1409695215135542    1.0269390323882150    1.9209516548443859    F  F  F            O45
    8.9976992274230110    3.4204018239819134    1.9209516548443859    F  F  F            O46
   18.6672762822343863    3.5174007459886876    1.9209516548443859    T  T  T            O47
   43.7686790335616962    3.2717075472280310    1.9209516548443859    F  F  F            O48
