Generated by VASPKIT code
 1.000000
   36.5763000000000034    0.0000000000000000    0.0000000000000000
    0.0000000000000000   13.0312000000000001    0.0000000000000000
    0.0000000000000000    0.0000000000000000    3.9378000000000002
   U    O 
    44    88
Direct
    0.0000000000000000    0.0000000000000000    0.0000000000000000     U001
    0.1363630000000000    0.8181820000000000    0.0000000000000000     U002
    0.2727280000000000    0.6363640000000000    0.0000000000000000     U003
    0.4090910000000000    0.4545450000000000    0.0000000000000000     U004
    0.0454540000000000    0.2727270000000000    0.0000000000000000     U005
    0.4545450000000000    0.7272729999999999    0.0000000000000000     U006
    0.0909090000000000    0.5454550000000000    0.0000000000000000     U007
    0.2272720000000000    0.3636360000000000    0.0000000000000000     U008
    0.3636360000000000    0.1818180000000000    0.0000000000000000     U009
    0.1818180000000000    0.0909090000000000    0.0000000000000000     U010
    0.3181820000000000    0.9090910000000000    0.0000000000000000     U011
    0.0454550000000000    0.7727270000000001    0.5000000000000000     U012
    0.1818180000000000    0.5909090000000000    0.5000000000000000     U013
    0.3181820000000000    0.4090910000000000    0.5000000000000000     U014
    0.4545450000000000    0.2272730000000000    0.5000000000000000     U015
    0.0909090000000000    0.0454550000000000    0.5000000000000000     U016
    0.5000000000000000    0.5000000000000000    0.5000000000000000     U017
    0.1363630000000000    0.3181820000000000    0.5000000000000000     U018
    0.2727280000000000    0.1363640000000000    0.5000000000000000     U019
    0.4090910000000000    0.9545450000000000    0.5000000000000000     U020
    0.2272720000000000    0.8636360000000000    0.5000000000000000     U021
    0.3636360000000000    0.6818180000000000    0.5000000000000000     U022
    0.5000000000000000    0.0000000000000000    0.0000000000000000     U023
    0.6363630000000000    0.1818180000000000    0.0000000000000000     U024
    0.7727280000000000    0.3636360000000000    0.0000000000000000     U025
    0.9090910000000000    0.5454550000000000    0.0000000000000000     U026
    0.5454540000000000    0.7272729999999999    0.0000000000000000     U027
    0.9545450000000000    0.2727270000000000    0.0000000000000000     U028
    0.5909090000000000    0.4545450000000000    0.0000000000000000     U029
    0.7272720000000000    0.6363640000000000    0.0000000000000000     U030
    0.8636360000000000    0.8181820000000000    0.0000000000000000     U031
    0.6818180000000000    0.9090910000000000    0.0000000000000000     U032
    0.8181820000000000    0.0909090000000000    0.0000000000000000     U033
    0.5454540000000000    0.2272730000000000    0.5000000000000000     U034
    0.6818180000000000    0.4090910000000000    0.5000000000000000     U035
    0.8181820000000000    0.5909090000000000    0.5000000000000000     U036
    0.9545450000000000    0.7727270000000001    0.5000000000000000     U037
    0.5909090000000000    0.9545450000000000    0.5000000000000000     U038
    0.0000000000000000    0.5000000000000000    0.5000000000000000     U039
    0.6363630000000000    0.6818180000000000    0.5000000000000000     U040
    0.7727280000000000    0.8636360000000000    0.5000000000000000     U041
    0.9090910000000000    0.0454550000000000    0.5000000000000000     U042
    0.7272720000000000    0.1363640000000000    0.5000000000000000     U043
    0.8636360000000000    0.3181820000000000    0.5000000000000000     U044
    0.0795450000000000    0.7272729999999999    0.0000000000000000     O001
    0.2159090000000000    0.5454550000000000    0.0000000000000000     O002
    0.3522720000000000    0.3636360000000000    0.0000000000000000     O003
    0.4786360000000000    0.1818180000000000    0.0000000000000000     O004
    0.1250000000000000    0.0000000000000000    0.0000000000000000     O005
    0.0340910000000000    0.4545450000000000    0.0000000000000000     O006
    0.1704540000000000    0.2727270000000000    0.0000000000000000     O007
    0.3068180000000000    0.0909090000000000    0.0000000000000000     O008
    0.4431820000000000    0.9090910000000000    0.0000000000000000     O009
    0.2613630000000000    0.8181820000000000    0.0000000000000000     O010
    0.3977270000000000    0.6363640000000000    0.0000000000000000     O011
    0.1022730000000000    0.8636360000000000    0.5000000000000000     O012
    0.2386360000000000    0.6818180000000000    0.5000000000000000     O013
    0.3750000000000000    0.5000000000000000    0.5000000000000000     O014
    0.0213630000000000    0.3181820000000000    0.5000000000000000     O015
    0.1477280000000000    0.1363640000000000    0.5000000000000000     O016
    0.0568180000000000    0.5909090000000000    0.5000000000000000     O017
    0.1931820000000000    0.4090910000000000    0.5000000000000000     O018
    0.3295450000000000    0.2272730000000000    0.5000000000000000     O019
    0.4659090000000000    0.0454550000000000    0.5000000000000000     O020
    0.2840910000000000    0.9545450000000000    0.5000000000000000     O021
    0.4204540000000000    0.7727270000000001    0.5000000000000000     O022
    0.0340910000000000    0.9545450000000000    0.5000000000000000     O023
    0.1704540000000000    0.7727270000000001    0.5000000000000000     O024
    0.3068180000000000    0.5909090000000000    0.5000000000000000     O025
    0.4431820000000000    0.4090910000000000    0.5000000000000000     O026
    0.0795450000000000    0.2272730000000000    0.5000000000000000     O027
    0.4786360000000000    0.6818180000000000    0.5000000000000000     O028
    0.1250000000000000    0.5000000000000000    0.5000000000000000     O029
    0.2613630000000000    0.3181820000000000    0.5000000000000000     O030
    0.3977270000000000    0.1363640000000000    0.5000000000000000     O031
    0.2159090000000000    0.0454550000000000    0.5000000000000000     O032
    0.3522720000000000    0.8636360000000000    0.5000000000000000     O033
    0.0213640000000000    0.8181820000000000    0.0000000000000000     O034
    0.1477280000000000    0.6363640000000000    0.0000000000000000     O035
    0.2840910000000000    0.4545450000000000    0.0000000000000000     O036
    0.4204540000000000    0.2727270000000000    0.0000000000000000     O037
    0.0568180000000000    0.0909090000000000    0.0000000000000000     O038
    0.4659090000000000    0.5454550000000000    0.0000000000000000     O039
    0.1022730000000000    0.3636360000000000    0.0000000000000000     O040
    0.2386360000000000    0.1818180000000000    0.0000000000000000     O041
    0.3750000000000000    0.0000000000000000    0.0000000000000000     O042
    0.1931820000000000    0.9090910000000000    0.0000000000000000     O043
    0.3295450000000000    0.7272729999999999    0.0000000000000000     O044
    0.5795450000000000    0.2727270000000000    0.0000000000000000     O045
    0.7159090000000000    0.4545450000000000    0.0000000000000000     O046
    0.8522720000000000    0.6363640000000000    0.0000000000000000     O047
    0.9786360000000000    0.8181820000000000    0.0000000000000000     O048
    0.6250000000000000    0.0000000000000000    0.0000000000000000     O049
    0.5340910000000000    0.5454550000000000    0.0000000000000000     O050
    0.6704540000000000    0.7272729999999999    0.0000000000000000     O051
    0.8068180000000000    0.9090910000000000    0.0000000000000000     O052
    0.9431820000000000    0.0909090000000000    0.0000000000000000     O053
    0.7613630000000000    0.1818180000000000    0.0000000000000000     O054
    0.8977280000000000    0.3636360000000000    0.0000000000000000     O055
    0.6022720000000000    0.1363640000000000    0.5000000000000000     O056
    0.7386360000000000    0.3181820000000000    0.5000000000000000     O057
    0.8750000000000000    0.5000000000000000    0.5000000000000000     O058
    0.5213630000000000    0.6818180000000000    0.5000000000000000     O059
    0.6477280000000000    0.8636360000000000    0.5000000000000000     O060
    0.5568180000000000    0.4090910000000000    0.5000000000000000     O061
    0.6931820000000000    0.5909090000000000    0.5000000000000000     O062
    0.8295450000000000    0.7727270000000001    0.5000000000000000     O063
    0.9659090000000000    0.9545450000000000    0.5000000000000000     O064
    0.7840910000000000    0.0454550000000000    0.5000000000000000     O065
    0.9204540000000000    0.2272730000000000    0.5000000000000000     O066
    0.5340910000000000    0.0454550000000000    0.5000000000000000     O067
    0.6704540000000000    0.2272730000000000    0.5000000000000000     O068
    0.8068180000000000    0.4090910000000000    0.5000000000000000     O069
    0.9431820000000000    0.5909090000000000    0.5000000000000000     O070
    0.5795460000000000    0.7727270000000001    0.5000000000000000     O071
    0.9786360000000000    0.3181820000000000    0.5000000000000000     O072
    0.6250000000000000    0.5000000000000000    0.5000000000000000     O073
    0.7613630000000000    0.6818180000000000    0.5000000000000000     O074
    0.8977280000000000    0.8636360000000000    0.5000000000000000     O075
    0.7159090000000000    0.9545450000000000    0.5000000000000000     O076
    0.8522720000000000    0.1363640000000000    0.5000000000000000     O077
    0.5213630000000000    0.1818180000000000    0.0000000000000000     O078
    0.6477280000000000    0.3636360000000000    0.0000000000000000     O079
    0.7840910000000000    0.5454550000000000    0.0000000000000000     O080
    0.9204540000000000    0.7272729999999999    0.0000000000000000     O081
    0.5568180000000000    0.9090910000000000    0.0000000000000000     O082
    0.9659090000000000    0.4545450000000000    0.0000000000000000     O083
    0.6022720000000000    0.6363640000000000    0.0000000000000000     O084
    0.7386360000000000    0.8181820000000000    0.0000000000000000     O085
    0.8750000000000000    0.0000000000000000    0.0000000000000000     O086
    0.6931820000000000    0.0909090000000000    0.0000000000000000     O087
    0.8295450000000000    0.2727270000000000    0.0000000000000000     O088
