cif2pos.py
   1.000
   39.8378009073876669    0.0000000000000000    0.0000000000000000
    0.0000000000000000   13.1421435162302842    0.0000000000000000
    0.0000000000000000    0.0000000000000000    3.8761186333578821
   U    Zr   O 
   43    1   88
Selective Dynamics
Cartesian
    0.0000050844320767   12.5279106279087689    0.0000000000000000    F  F  F             U1
    5.4705379201164446   10.7412242862561467    0.0000000000000000    F  F  F             U2
   10.4110519521911655    8.3492013831711009    0.0000000000000000    T  T  T             U3
   15.5930131339572728    5.9967397386312102    0.0000000000000000    T  T  T             U4
    2.2655943442674058    3.5649867510904980    0.0000000000000000    F  F  F             U5
    3.6189034629404260    7.1403598943293627    0.0000000000000000    F  F  F             U6
    8.7888076254628302    4.7651093513480340    0.0000000000000000    F  F  F             U7
   13.7514230885570203    2.3536950961762440    0.0000000000000000    T  T  T             U8
    7.0515980971819481    1.1731255910600911    0.0000000000000000    F  F  F             U9
   12.1190709319528320   11.9349071997146154    0.0000000000000000    T  T  T            U10
    2.2715525036702289   10.1354387806924873    1.9380593166789410    F  F  F            U11
    7.0661304051373879    7.7406275757446661    1.9380593166789410    F  F  F            U12
   12.1429960727309787    5.3686835679852809    1.9380593166789410    T  T  T            U13
   16.9294706560761874    2.9750501705894656    1.9380593166789410    T  T  T            U14
    3.5966567824936049    0.5800088355433599    1.9380593166789410    F  F  F            U15
   19.0761458275502243    7.3206296004725928    1.9380593166789410    T  T  T            U16
    5.4738057851156530    4.1647856396541769    1.9380593166789410    F  F  F            U17
   10.4222701760913452    1.7691384496896190    1.9380593166789410    T  T  T            U18
   15.6421647983581806   12.4482325486468763    1.9380593166789410    T  T  T            U19
    8.7682749729855605   11.3369830642293028    1.9380593166789410    F  F  F            U20
   13.7038828367589645    8.9606430199296305    1.9380593166789410    T  T  T            U21
   19.2415518201434494    0.5635215902031316    0.0000000000000000    T  T  T            U22
   26.1313129257792909    2.4246712009192177    0.0000000000000000    T  T  T            U23
   31.0716877377859753    4.7897285610512776    0.0000000000000000    F  F  F            U24
   36.2469210006551563    7.1547748175007575    0.0000000000000000    F  F  F            U25
   22.8718196273198373    9.6217838506313633    0.0000000000000000    T  T  T            U26
   37.5847957607031518    3.5769768870970378    0.0000000000000000    F  F  F            U27
   24.2627696491202940    6.0196131172981300    0.0000000000000000    T  T  T            U28
   29.4337669325496947    8.3696531331877750    0.0000000000000000    T  T  T            U29
   34.3784867110120516   10.7524553457839005    0.0000000000000000    F  F  F            U30
   27.7047315498481908   11.9735091250751431    0.0000000000000000    T  T  T            U31
   32.7882527294370192    1.1899385706732304    0.0000000000000000    F  F  F            U32
   22.9291983107278767    3.0297079542684804    1.9380593166789410    T  T  T            U33
   27.7156668358642939    5.4155642290414621    1.9380593166789410    T  T  T            U34
   32.7908210816069285    7.7627668867562738    1.9380593166789410    F  F  F            U35
   37.5800656973458871   10.1439217181261352    1.9380593166789410    F  F  F            U36
   24.2684081094175923   12.5850575767596151    1.9380593166789410    T  T  T            U37
    0.0263932514241286    5.9634714187662299    1.9380593166789410    F  F  F            U38
   26.1030745341795694    8.9844717872491771    1.9380593166789410    T  T  T            U39
   31.0651960874400892   11.3602584026562194    1.9380593166789410    F  F  F            U40
   36.2465133210322605    0.5830673437453431    1.9380593166789410    F  F  F            U41
   29.4347383410664705    1.8024325913914985    1.9380593166789410    T  T  T            U42
   34.3812383317250863    4.1797492264592568    1.9380593166789410    F  F  F            U43
   16.8011685623061133    9.4923574168867688    0.0000000000000000    T  T  T            Zr1
    3.5495327246351205    9.4700928400732280    0.0000000000000000    F  F  F             O1
    8.3644950202220905    7.1417340134669143    0.0000000000000000    F  F  F             O2
   13.3280911445946249    4.7922075293598514    0.0000000000000000    T  T  T             O3
   17.9104502975693833    2.4088308010332669    0.0000000000000000    T  T  T             O4
    4.8736896209160303    0.0214578786799492    0.0000000000000000    F  F  F             O5
    1.4252220378098801    5.9244123977131711    0.0000000000000000    F  F  F             O6
    6.6938245820033515    3.5722899440430629    0.0000000000000000    F  F  F             O7
   11.7179555650097296    1.1701329184509921    0.0000000000000000    T  T  T             O8
   16.8921408885903048   11.6077482214388130    0.0000000000000000    T  T  T             O9
   10.0072736447706081   10.7357355355904271    0.0000000000000000    T  T  T            O10
   15.0796021134843574    8.3741915872081467    0.0000000000000000    T  T  T            O11
    4.1431300867217944   11.3757071197256945    1.9380593166789410    F  F  F            O12
    9.1600630415040509    8.9643009736249990    1.9380593166789410    F  F  F            O13
   14.3166694783132247    6.5746398906160630    1.9380593166789410    T  T  T            O14
    1.2096100433654398    4.0467690475697191    1.9380593166789410    F  F  F            O15
    5.8764313718725401    1.7658580920852962    1.9380593166789410    F  F  F            O16
    2.3433916842946383    7.8138376684833464    1.9380593166789410    F  F  F            O17
    7.5080750630325657    5.3597028080334868    1.9380593166789410    F  F  F            O18
   12.5304062805928567    2.9595793236905665    1.9380593166789410    T  T  T            O19
   17.8164773799819685    0.5150954561416458    1.9380593166789410    T  T  T            O20
   10.8150945962163583   12.5475492173694985    1.9380593166789410    T  T  T            O21
   15.5728837967550646   10.2015084005507379    1.9380593166789410    T  T  T            O22
    1.3953543151176577   12.4930946668647227    1.9380593166789410    F  F  F            O23
    6.6610334490463607   10.1393559707753234    1.9380593166789410    F  F  F            O24
   11.6950748655055374    7.7451893283363207    1.9380593166789410    T  T  T            O25
   16.8941714169161976    5.3347542951723845    1.9380593166789410    T  T  T            O26
    3.5249049105717516    2.9082171948252018    1.9380593166789410    F  F  F            O27
   17.7312618709527854    9.1264459603217798    1.9380593166789410    T  T  T            O28
    4.8919004510460011    6.5449613917884095    1.9380593166789410    F  F  F            O29
   10.0243636781491805    4.1676702724412733    1.9380593166789410    T  T  T            O30
   15.0681423659336087    1.7517224144919314    1.9380593166789410    T  T  T            O31
    8.3303643713698907    0.5545631072539190    1.9380593166789410    F  F  F            O32
   13.2521341225861313   11.3582194037124182    1.9380593166789410    T  T  T            O33
    1.2436115084638264   10.6185047063586389    0.0000000000000000    F  F  F            O34
    5.8867296579527677    8.2931009826507367    0.0000000000000000    F  F  F            O35
   10.8582335388091824    5.9806324526226158    0.0000000000000000    T  T  T            O36
   15.6772031581827260    3.6707454966674646    0.0000000000000000    T  T  T            O37
    2.3165539343604378    1.2508844023467842    0.0000000000000000    F  F  F            O38
   17.7017244614244582    7.3526589431922131    0.0000000000000000    T  T  T            O39
    4.1512010866590732    4.7782550946722377    0.0000000000000000    F  F  F            O40
    9.1915429368711692    2.3586694199436269    0.0000000000000000    F  F  F            O41
   14.3695376771901717   13.0850982280477321    0.0000000000000000    T  T  T            O42
    7.4651545221902618   11.9290534609279142    0.0000000000000000    F  F  F            O43
   12.4879810793986046    9.5310996367776273    0.0000000000000000    T  T  T            O44
   24.1937592533015042    3.6791694446140633    0.0000000000000000    T  T  T            O45
   29.0095309639422787    6.0067363540277574    0.0000000000000000    T  T  T            O46
   33.9738376493374616    8.3434909119802416    0.0000000000000000    F  F  F            O47
   38.6356515641927984   10.6185936249559649    0.0000000000000000    F  F  F            O48
   25.5337143483294184   13.1418473070934159    0.0000000000000000    T  T  T            O49
   22.0178041520474643    7.3115928815182150    0.0000000000000000    T  T  T            O50
   27.3149463609284346    9.5679655896503579    0.0000000000000000    T  T  T            O51
   32.3461488047285926   11.9479500061037722    0.0000000000000000    F  F  F            O52
   37.5161990370148715    1.2519979270840358    0.0000000000000000    F  F  F            O53
   30.6645580001380580    2.3888093779961004    0.0000000000000000    F  F  F            O54
   35.7064289056856907    4.7998537342835137    0.0000000000000000    F  F  F            O55
   24.8153657507034957    1.7958856933572140    1.9380593166789410    T  T  T            O56
   29.8339144407084049    4.1931679287855355    1.9380593166789410    T  T  T            O57
   34.9569540812023760    6.5687430675223082    1.9380593166789410    F  F  F            O58
   21.7526245335623294    9.2390863242244823    1.9380593166789410    T  T  T            O59
   26.5238771325307248   11.4039993677157483    1.9380593166789410    T  T  T            O60
   23.0253634280924757    5.3433374655436721    1.9380593166789410    T  T  T            O61
   28.1547455155026221    7.7817733881102615    1.9380593166789410    T  T  T            O62
   33.1619305147827532   10.1600767345585421    1.9380593166789410    F  F  F            O63
   38.4290914927719385   12.4998324222144461    1.9380593166789410    F  F  F            O64
   31.5007860375152369    0.5871049379430535    1.9380593166789410    F  F  F            O65
   36.3119074159514810    2.9076610844273625    1.9380593166789410    F  F  F            O66
   22.1209012984063591    0.6755428291402853    1.9380593166789410    T  T  T            O67
   27.3269874322353985    3.0223598519397830    1.9380593166789410    T  T  T            O68
   32.3523390907190844    5.3770819889585280    1.9380593166789410    F  F  F            O69
   37.4985246853060517    7.8288679361087876    1.9380593166789410    F  F  F            O70
   24.1479173486689369   10.2592734747687260    1.9380593166789410    T  T  T            O71
   38.6038327589339829    4.0715961693328770    1.9380593166789410    F  F  F            O72
   25.5420389640511658    6.6005083676514147    1.9380593166789410    T  T  T            O73
   30.6685220425175373    8.9651530676568001    1.9380593166789410    F  F  F            O74
   35.7007255316768735   11.3671361004863858    1.9380593166789410    F  F  F            O75
   28.9933024228371288   12.5808328357212496    1.9380593166789410    T  T  T            O76
   33.9662474276878967    1.7683246413145379    1.9380593166789410    F  F  F            O77
   21.8634781529406830    2.5448848898366587    0.0000000000000000    T  T  T            O78
   26.5310109084573824    4.8595892667001745    0.0000000000000000    T  T  T            O79
   31.5091148895521407    7.1604712842857081    0.0000000000000000    F  F  F            O80
   36.3178829618602848    9.4878060185127158    0.0000000000000000    F  F  F            O81
   22.9445394660069226   11.9406262522189817    0.0000000000000000    T  T  T            O82
   38.4588381702826325    5.9444096738610561    0.0000000000000000    F  F  F            O83
   24.7775148324819341    8.3836313746822224    0.0000000000000000    T  T  T            O84
   29.8201826011780362   10.7692156334245457    0.0000000000000000    T  T  T            O85
   34.9577042716138280   13.1408092864135373    0.0000000000000000    F  F  F            O86
   28.1361413100968001    1.2214279355923059    0.0000000000000000    T  T  T            O87
   33.1656678222595076    3.5860448535368183    0.0000000000000000    F  F  F            O88
