K-Spacing Value to Generate K-Mesh: 0.030
0
Monkhorst-Pack
   1   3   9
0.0  0.0  0.0
