cif2pos.py
   1.000
   42.1686756529434632    0.0000000000000000    0.0000000000000000
    0.0000000000000000    6.7963468884617413    0.0000000000000000
    0.0000000000000000    0.0000000000000000    3.8419033096887718
   U    La   O 
   23    1   48
Selective Dynamics
Cartesian
    1.6515662758113085    6.7613247645821168    0.0000000000000000    F  F  F             U1
    4.8860701202154484    2.2558078850929824    0.0000000000000000    F  F  F             U2
    8.1217163788519517    4.5244694989853187    0.0000000000000000    F  F  F             U3
   11.3738392664440084    6.7923263156397322    0.0000000000000000    T  T  T             U4
   14.6317993663298029    2.2791993887218567    0.0000000000000000    T  T  T             U5
   17.8444436792097321    4.5589158454916774    0.0000000000000000    T  T  T             U6
   27.5673216396937555    4.5614233338312307    0.0000000000000000    T  T  T             U7
   30.7905832131928321    2.2601714104609711    0.0000000000000000    T  T  T             U8
   34.0398862701435974    6.7804678708485078    0.0000000000000000    F  F  F             U9
   37.2872979695852607    4.4822393811649910    0.0000000000000000    F  F  F            U10
   40.4872275652473377    2.1875917301140011    0.0000000000000000    F  F  F            U11
    1.6518292912557344    3.3625286806774803    1.9209516548443859    F  F  F            U12
   24.3551990595734260    3.4274265323347182    1.9209516548443859    T  T  T            U13
   27.5300527566953015    1.1617948452132290    1.9209516548443859    T  T  T            U14
   11.3743378576827308    3.3940621117158702    1.9209516548443859    T  T  T            U15
    4.8827285227216741    5.6520375574239479    1.9209516548443859    F  F  F            U16
   30.7930124897443562    5.6706151832467890    1.9209516548443859    T  T  T            U17
   14.6294936981387522    5.6761690318622087    1.9209516548443859    T  T  T            U18
   34.0408894504229238    3.3810705742101259    1.9209516548443859    F  F  F            U19
    8.1205463068199553    1.1251281333827223    1.9209516548443859    F  F  F            U20
   37.2850492446695583    1.0853236806499302    1.9209516548443859    F  F  F            U21
   17.8423375169574392    1.1615889145233274    1.9209516548443859    T  T  T            U22
   40.4875748968152962    5.5861044447056454    1.9209516548443859    F  F  F            U23
   24.2719153770106502    0.0000890264526939    0.0000000000000000    T  T  T            La1
    0.8698894212143463    4.4702627993058108    0.0000000000000000    F  F  F             O1
    2.4803482425951939    2.2362244878326640    0.0000000000000000    F  F  F             O2
    4.0889854427765595    6.7808393711880104    0.0000000000000000    F  F  F             O3
    5.7091098046682598    4.5324724382742962    0.0000000000000000    F  F  F             O4
    7.3184410959470751    2.2696709216458841    0.0000000000000000    F  F  F             O5
    8.9613115350114736    6.7786376535634680    0.0000000000000000    F  F  F             O6
   10.5786344850556393    4.5263654164492513    0.0000000000000000    T  T  T             O7
   12.1923912235025771    2.2608308841381706    0.0000000000000000    T  T  T             O8
   13.8231998058109617    0.0037757599616052    0.0000000000000000    T  T  T             O9
   15.4729997733251157    4.5549550119294127    0.0000000000000000    T  T  T            O10
   17.0282527471724023    2.3021357898929975    0.0000000000000000    T  T  T            O11
   18.6607080003715957    0.0531977252687248    0.0000000000000000    T  T  T            O12
   23.4715701423740768    2.5531786354989752    0.0000000000000000    T  T  T            O13
   25.2457617898620654    4.4621965476730647    0.0000000000000000    T  T  T            O14
   26.7113815626689473    0.0475266329980902    0.0000000000000000    T  T  T            O15
   28.3763896142139060    2.2764487681898720    0.0000000000000000    T  T  T            O16
   29.9808056756991199    4.5447356483092562    0.0000000000000000    T  T  T            O17
   31.6192065052736417    6.7886974983776822    0.0000000000000000    T  T  T            O18
   33.2526945776901925    2.2503065484774973    0.0000000000000000    F  F  F            O19
   34.8634170782612856    4.5097068475592037    0.0000000000000000    F  F  F            O20
   36.4891404652369644    6.7582391213334265    0.0000000000000000    F  F  F            O21
   38.1339997885080777    2.2030853059671309    0.0000000000000000    F  F  F            O22
   39.6768504264163937    4.4444650706892501    0.0000000000000000    F  F  F            O23
   41.2641524216189026    6.7036343002928218    0.0000000000000000    F  F  F            O24
   10.5557528229461663    1.1393105542114277    1.9209516548443859    T  T  T            O25
   23.5609115394905402    5.4054513071824255    1.9209516548443859    T  T  T            O26
   25.0688936283909065    1.3184054838500965    1.9209516548443859    T  T  T            O27
    0.8688917680684667    1.0717105590299221    1.9209516548443859    F  F  F            O28
   26.7585721293660903    3.4261217109133471    1.9209516548443859    T  T  T            O29
   12.2100051121389246    5.6536855469654776    1.9209516548443859    T  T  T            O30
    5.7203190225650813    1.1338478095879658    1.9209516548443859    F  F  F            O31
   28.3738365736366802    5.7149731452196963    1.9209516548443859    T  T  T            O32
   29.9910576093689620    1.1354929260458604    1.9209516548443859    T  T  T            O33
   13.8291048190293928    3.4018371940385448    1.9209516548443859    T  T  T            O34
    7.3340925341408347    5.6600723334398628    1.9209516548443859    F  F  F            O35
   31.6138547467463482    3.3815222013786563    1.9209516548443859    T  T  T            O36
   33.2343176254409371    5.6417159044675875    1.9209516548443859    F  F  F            O37
    4.0883290913743080    3.3820107765464278    1.9209516548443859    F  F  F            O38
   34.8820209576590514    1.1193207416677939    1.9209516548443859    F  F  F            O39
   15.4700697532658360    1.1573880057934560    1.9209516548443859    T  T  T            O40
   36.4957131279791653    3.3620964806655707    1.9209516548443859    F  F  F            O41
   17.0319031670068490    5.7070876670365527    1.9209516548443859    T  T  T            O42
    2.4810717692123165    5.6351993149044350    1.9209516548443859    F  F  F            O43
   38.1335318808065011    5.6007375472865828    1.9209516548443859    F  F  F            O44
   39.6774707556457855    1.0463493234173424    1.9209516548443859    F  F  F            O45
    8.9438557199954953    3.3905339892836333    1.9209516548443859    F  F  F            O46
   18.6405002291878930    3.4491459130969297    1.9209516548443859    T  T  T            O47
   41.2643318745913703    3.3060797751974023    1.9209516548443859    F  F  F            O48
