cif2pos.py
   1.000
   39.8378009073876669    0.0000000000000000    0.0000000000000000
    0.0000000000000000   13.1421435162302842    0.0000000000000000
    0.0000000000000000    0.0000000000000000    3.8761186333578821
   U    Mo   O 
   43    1   88
Selective Dynamics
Cartesian
   39.8069321236064297   12.5023367969095922    0.0000000000000000    F  F  F             U1
    5.4922710584249312   10.7629381898569552    0.0000000000000000    F  F  F             U2
   10.4317427904570668    8.3563956916356830    0.0000000000000000    F  F  F             U3
   15.6454229849452133    6.0525623508312174    0.0000000000000000    T  T  T             U4
    2.2960987035082909    3.5772122032037568    0.0000000000000000    F  F  F             U5
    3.6281152678723774    7.1662459181686389    0.0000000000000000    F  F  F             U6
    8.8076328812230926    4.7816415449780285    0.0000000000000000    F  F  F             U7
   13.7932537917461051    2.3880087128790919    0.0000000000000000    T  T  T             U8
    7.0995150941822986    1.2077580342407690    0.0000000000000000    F  F  F             U9
   12.1638269216900721   11.9676739274891943    0.0000000000000000    F  F  F            U10
    2.2817653146460177   10.1582297076373838    1.9380593166789410    F  F  F            U11
    7.0794093090774917    7.7576782750036752    1.9380593166789410    F  F  F            U12
   12.1549744298925440    5.3652152593191191    1.9380593166789410    F  F  F            U13
   16.9738238386033835    3.0069481826210036    1.9380593166789410    T  T  T            U14
    3.6401222386912515    0.5990459274389337    1.9380593166789410    F  F  F            U15
   18.9880399290951551    7.3363826713814300    1.9380593166789410    T  T  T            U16
    5.4997474555181523    4.1969371854033533    1.9380593166789410    F  F  F            U17
   10.4663437834224968    1.7981820841223872    1.9380593166789410    F  F  F            U18
   15.6477221918178699   12.4546299466507477    1.9380593166789410    T  T  T            U19
    8.8028139884275181   11.3624967742834428    1.9380593166789410    F  F  F            U20
   13.7320502461509477    8.9707271300011868    1.9380593166789410    T  T  T            U21
   19.2741141805518978    0.5361079847723631    0.0000000000000000    T  T  T            U22
   26.1129932829008276    2.4162297688933414    0.0000000000000000    T  T  T            U23
   31.0422436944939584    4.7848141651471012    0.0000000000000000    F  F  F            U24
   36.2250592361633892    7.1292353780474009    0.0000000000000000    F  F  F            U25
   22.8137803395631451    9.6008732101193921    0.0000000000000000    T  T  T            U26
   37.5785645713336010    3.5426474102938421    0.0000000000000000    F  F  F            U27
   24.2229738202714415    6.0236598712938036    0.0000000000000000    T  T  T            U28
   29.4009803345072882    8.3684298806354533    0.0000000000000000    F  F  F            U29
   34.3601291537077245   10.7305362261611084    0.0000000000000000    F  F  F            U30
   27.6799102241268571   11.9524120324560368    0.0000000000000000    F  F  F            U31
   32.7678667920787632    1.1681725096062505    0.0000000000000000    F  F  F            U32
   22.9207638113749965    3.0259579527413951    1.9380593166789410    T  T  T            U33
   27.6855634060474713    5.4139288868678301    1.9380593166789410    F  F  F            U34
   32.7674019747229508    7.7401848680883880    1.9380593166789410    F  F  F            U35
   37.5677920181392651   10.1065123573650251    1.9380593166789410    F  F  F            U36
   24.2488664441960218   12.5668849701916603    1.9380593166789410    T  T  T            U37
    0.0126731885420317    5.9311804539563298    1.9380593166789410    F  F  F            U38
   26.0624083862272045    8.9767054803154789    1.9380593166789410    T  T  T            U39
   31.0389804446286846   11.3532431701940890    1.9380593166789410    F  F  F            U40
   36.2296593593466625    0.5587929233093478    1.9380593166789410    F  F  F            U41
   29.4107799070590659    1.7935042100349301    1.9380593166789410    F  F  F            U42
   34.3626855490493810    4.1569731989768144    1.9380593166789410    F  F  F            U43
   16.7443297589041933    9.5391833887531252    0.0000000000000000    T  T  T            Mo1
    3.5668560871960695    9.4997766779505994    0.0000000000000000    F  F  F             O1
    8.3590516497186496    7.1413099443114900    0.0000000000000000    F  F  F             O2
   13.3141617642142975    4.7869473078728824    0.0000000000000000    T  T  T             O3
   17.8708627810925869    2.3354989836361981    0.0000000000000000    T  T  T             O4
    4.9302129759038316    0.0179035175269805    0.0000000000000000    F  F  F             O5
    1.4186114804315528    5.9277652943118788    0.0000000000000000    F  F  F             O6
    6.7227782565587892    3.6017125252272963    0.0000000000000000    F  F  F             O7
   11.7763360992517772    1.1933543976314986    0.0000000000000000    T  T  T             O8
   16.8179372663629678   11.5393470273695744    0.0000000000000000    T  T  T             O9
   10.0331066103291739   10.7769261145468569    0.0000000000000000    T  T  T            O10
   15.0805704328887327    8.4086920969316523    0.0000000000000000    T  T  T            O11
    4.1521825914023367   11.3964984822854536    1.9380593166789410    F  F  F            O12
    9.2024051050488573    8.9584401735231705    1.9380593166789410    F  F  F            O13
   14.3568006127414911    6.5878266624391149    1.9380593166789410    T  T  T            O14
    1.2261047237268823    4.0366649795810838    1.9380593166789410    F  F  F            O15
    5.9132132188531648    1.7851565447038584    1.9380593166789410    F  F  F            O16
    2.3701280639149283    7.8369359645747432    1.9380593166789410    F  F  F            O17
    7.5161915281412943    5.3785443356976268    1.9380593166789410    F  F  F            O18
   12.5691456603453009    2.9615944493568103    1.9380593166789410    T  T  T            O19
   17.8550663804521328    0.4297181355120676    1.9380593166789410    T  T  T            O20
   10.8784159726427117   12.5868712881721496    1.9380593166789410    T  T  T            O21
   15.6252835979827971   10.1649698367246035    1.9380593166789410    T  T  T            O22
    1.3691926034784645   12.5095775924025858    1.9380593166789410    F  F  F            O23
    6.7142394911786463   10.1583186588135028    1.9380593166789410    F  F  F            O24
   11.7114029051315498    7.7526191134213107    1.9380593166789410    T  T  T            O25
   17.0363316296999976    5.3634897860433242    1.9380593166789410    T  T  T            O26
    3.5601694581962673    2.9323655983909416    1.9380593166789410    F  F  F            O27
   17.6978955217501195    9.1451109465531761    1.9380593166789410    T  T  T            O28
    4.9096449273185927    6.5755231446122551    1.9380593166789410    F  F  F            O29
   10.0708432438941458    4.1709296373398415    1.9380593166789410    T  T  T            O30
   15.1218151663376226    1.7839820011734053    1.9380593166789410    T  T  T            O31
    8.3888851381417844    0.6030052852944687    1.9380593166789410    F  F  F            O32
   13.3314150527858981   11.3908534053343224    1.9380593166789410    T  T  T            O33
    1.2446704807122664   10.6192074865676531    0.0000000000000000    F  F  F            O34
    5.8993133118225911    8.3364976018917272    0.0000000000000000    F  F  F            O35
   10.8474577362470885    5.9888711680528202    0.0000000000000000    T  T  T            O36
   15.7215943738573429    3.7379386668498662    0.0000000000000000    T  T  T            O37
    2.3988525369260465    1.2666863731106268    0.0000000000000000    F  F  F            O38
   17.5859680770186628    7.4014585749661430    0.0000000000000000    T  T  T            O39
    4.1696826227810799    4.8085189608434451    0.0000000000000000    F  F  F            O40
    9.2184740323039307    2.4053991038014937    0.0000000000000000    F  F  F            O41
   14.4167037904114768   13.1136993377104876    0.0000000000000000    T  T  T            O42
    7.5125298973012864   11.9597529923029580    0.0000000000000000    F  F  F            O43
   12.5117154355468827    9.5646618254123563    0.0000000000000000    T  T  T            O44
   24.1743981444775997    3.6681830174808150    0.0000000000000000    T  T  T            O45
   28.9801385581938717    6.0015701617124337    0.0000000000000000    T  T  T            O46
   33.9526089833487532    8.3067756599007172    0.0000000000000000    F  F  F            O47
   38.6334876305912545   10.5775260071857460    0.0000000000000000    F  F  F            O48
   25.5126490304355045   13.1182272841971574    0.0000000000000000    T  T  T            O49
   21.9407777041133762    7.2946822017948474    0.0000000000000000    T  T  T            O50
   27.2905434362570780    9.5606918555895835    0.0000000000000000    T  T  T            O51
   32.3224331507302338   11.9424168033093867    0.0000000000000000    F  F  F            O52
   37.5236709957836538    1.2200819621038033    0.0000000000000000    F  F  F            O53
   30.6423944128912957    2.3802019941926482    0.0000000000000000    F  F  F            O54
   35.6836288398563184    4.7642750488861623    0.0000000000000000    F  F  F            O55
   24.8085005126703493    1.7849074961181872    1.9380593166789410    T  T  T            O56
   29.8103293083426912    4.1913237198221891    1.9380593166789410    T  T  T            O57
   34.9466532885190873    6.5559821876097919    1.9380593166789410    F  F  F            O58
   21.7099167198710639    9.2270634932761801    1.9380593166789410    T  T  T            O59
   26.4956487159562322   11.3696348592567187    1.9380593166789410    T  T  T            O60
   23.0185867811389961    5.3312049041898293    1.9380593166789410    T  T  T            O61
   28.1202739229661027    7.7886852582790596    1.9380593166789410    T  T  T            O62
   33.1489151329713181   10.1502610125741750    1.9380593166789410    F  F  F            O63
   38.3988418164890675   12.4570394094979964    1.9380593166789410    F  F  F            O64
   31.4707757118462084    0.5739194403428424    1.9380593166789410    F  F  F            O65
   36.3057376153010054    2.8741911941935827    1.9380593166789410    F  F  F            O66
   22.1463899146724792    0.6830179870121735    1.9380593166789410    T  T  T            O67
   27.3101571902373834    3.0188029393596789    1.9380593166789410    T  T  T            O68
   32.3284682266719230    5.3691924905604163    1.9380593166789410    F  F  F            O69
   37.4913839321924485    7.7966763727904320    1.9380593166789410    F  F  F            O70
   24.1111756555567922   10.2423144437971381    1.9380593166789410    T  T  T            O71
   38.6125126410973962    4.0237969552267687    1.9380593166789410    F  F  F            O72
   25.5176046470643847    6.6143293575012585    1.9380593166789410    T  T  T            O73
   30.6467164879752580    8.9586388139279283    1.9380593166789410    F  F  F            O74
   35.6734831694374890   11.3312070876257263    1.9380593166789410    F  F  F            O75
   28.9625364164886392   12.5665236312044346    1.9380593166789410    T  T  T            O76
   33.9442801227007891    1.7316622501109720    1.9380593166789410    F  F  F            O77
   21.8286216901540193    2.5504408697634000    0.0000000000000000    T  T  T            O78
   26.5026148555424399    4.8579419398452917    0.0000000000000000    T  T  T            O79
   31.4788982929329606    7.1479456399164958    0.0000000000000000    F  F  F            O80
   36.3084192557128915    9.4522045294056944    0.0000000000000000    F  F  F            O81
   22.8996887012926180   11.9404498039562075    0.0000000000000000    T  T  T            O82
   38.4451631510229745    5.9000475409005615    0.0000000000000000    F  F  F            O83
   24.7181768963345121    8.3687823151698044    0.0000000000000000    T  T  T            O84
   29.8013858268086693   10.7635130657008968    0.0000000000000000    T  T  T            O85
   34.9538908996580986   13.1322546722264502    0.0000000000000000    F  F  F            O86
   28.1143258768358741    1.2087419944315054    0.0000000000000000    T  T  T            O87
   33.1516911114682458    3.5738132403673055    0.0000000000000000    F  F  F            O88
