cif2pos.py
   1.000
   46.1686756529434632    0.0000000000000000    0.0000000000000000
    0.0000000000000000    6.7963468884617413    0.0000000000000000
    0.0000000000000000    0.0000000000000000    3.8419033096887718
   U    Mo   O 
   23    1   48
Selective Dynamics
Cartesian
    1.6855029219569229    6.7398798469104175    0.0000000000000000    F  F  F             U1
    4.9480404751387361    2.2404152893236766    0.0000000000000000    F  F  F             U2
    8.2251997762264448    4.5209791195352160    0.0000000000000000    F  F  F             U3
   11.4953573051759221    0.0104601060056972    0.0000000000000000    T  T  T             U4
   14.8071785554993411    2.2766401348194329    0.0000000000000000    T  T  T             U5
   17.9529338587776905    4.5948300109648459    0.0000000000000000    T  T  T             U6
   31.3484347783021100    4.6126517483089415    0.0000000000000000    T  T  T             U7
   34.6129635945929266    2.3045160285484343    0.0000000000000000    T  T  T             U8
   37.9009341145862990    0.0029331910985933    0.0000000000000000    F  F  F             U9
   41.1823239266891363    4.4741253791298030    0.0000000000000000    F  F  F            U10
   44.4131336696064878    2.1742939324955763    0.0000000000000000    F  F  F            U11
    1.6845270522848386    3.3426786684950147    1.9209516548443859    F  F  F            U12
   28.2333139740750525    3.4391678210547201    1.9209516548443859    T  T  T            U13
   31.3273810427467190    1.1891998383887432    1.9209516548443859    T  T  T            U14
   11.5087062615639404    3.4013546309064240    1.9209516548443859    T  T  T            U15
    4.9526068840670368    5.6401259605188718    1.9209516548443859    F  F  F            U16
   34.6299267673301188    5.7064828496580855    1.9209516548443859    T  T  T            U17
   14.7681134017835376    5.6970436219841778    1.9209516548443859    T  T  T            U18
   37.8997445441183416    3.3982931992869307    1.9209516548443859    F  F  F            U19
    8.2241279969765522    1.1258363211308535    1.9209516548443859    F  F  F            U20
   41.1828496784193803    1.0759508131172311    1.9209516548443859    F  F  F            U21
   18.1381106730604564    1.1294137932560588    1.9209516548443859    T  T  T            U22
   44.4133056259933667    5.5724977085267549    1.9209516548443859    F  F  F            U23
   28.2718723222957635    0.1273017919718368    0.0000000000000000    T  T  T            Mo1
    0.9021505409378193    4.4509612554864200    0.0000000000000000    F  F  F             O1
    2.5256505024661595    2.2179484262475917    0.0000000000000000    F  F  F             O2
    4.1419721598986330    6.7642756353088496    0.0000000000000000    F  F  F             O3
    5.7946990426176823    4.5193501795688311    0.0000000000000000    F  F  F             O4
    7.4259042139950360    2.2582379408181912    0.0000000000000000    F  F  F             O5
    9.0582490485768155    6.7917422091289916    0.0000000000000000    F  F  F             O6
   10.6958513106882318    4.5311622151630058    0.0000000000000000    T  T  T             O7
   12.3471156325146936    2.2770930563174749    0.0000000000000000    T  T  T             O8
   13.9866946135938406    0.0305498965116923    0.0000000000000000    T  T  T             O9
   15.6049255870254768    4.5542432078525659    0.0000000000000000    T  T  T            O10
   17.2718182657177195    2.3088220175506535    0.0000000000000000    T  T  T            O11
   18.7919779175743464    6.7534109279942482    0.0000000000000000    T  T  T            O12
   27.4947435222269405    2.0255663659478724    0.0000000000000000    T  T  T            O13
   28.8801650530143981    4.5585505641155573    0.0000000000000000    T  T  T            O14
   30.3883493992960041    0.0057434467860451    0.0000000000000000    T  T  T            O15
   32.1798072638213668    2.2947829144072722    0.0000000000000000    T  T  T            O16
   33.7930983189248622    4.5709555418598882    0.0000000000000000    T  T  T            O17
   35.4790896422740829    0.0332787474352850    0.0000000000000000    T  T  T            O18
   37.0938383744057489    2.2798230444287397    0.0000000000000000    F  F  F            O19
   38.7414950667201836    4.5165168002694802    0.0000000000000000    F  F  F            O20
   40.3789229736764668    6.7507334053623635    0.0000000000000000    F  F  F            O21
   42.0373918957789741    2.1916809799429977    0.0000000000000000    F  F  F            O22
   43.5950075057133901    4.4320508249321540    0.0000000000000000    F  F  F            O23
   45.2141863199951999    6.6865160299611377    0.0000000000000000    F  F  F            O24
   10.6947699016776330    1.1316728912793548    1.9209516548443859    T  T  T            O25
   27.6302249080329538    6.0579521452374987    1.9209516548443859    T  T  T            O26
   29.0783895487990698    1.2541126887790939    1.9209516548443859    T  T  T            O27
    0.9046241944265608    1.0523308074630973    1.9209516548443859    F  F  F            O28
   30.6092607434766393    3.4946012197432466    1.9209516548443859    T  T  T            O29
   12.3390420308217141    5.6863102559995475    1.9209516548443859    T  T  T            O30
    5.7864650541591685    1.1221846089237704    1.9209516548443859    F  F  F            O31
   32.1806339567321515    5.7573369018376388    1.9209516548443859    T  T  T            O32
   33.8380365523680524    1.1744093075747093    1.9209516548443859    T  T  T            O33
   13.9756535766567520    3.4171635347086800    1.9209516548443859    T  T  T            O34
    7.4115005716281450    5.6630279208028487    1.9209516548443859    F  F  F            O35
   35.4538079516060236    3.4368714767644395    1.9209516548443859    T  T  T            O36
   37.0938007733111590    5.6777272792500106    1.9209516548443859    F  F  F            O37
    4.1422145057121247    3.3661161180598778    1.9209516548443859    F  F  F            O38
   38.7437861008882294    1.1207089355078275    1.9209516548443859    F  F  F            O39
   15.6871986758346917    1.1639199226939834    1.9209516548443859    T  T  T            O40
   40.3780814172200735    3.3532547475659067    1.9209516548443859    F  F  F            O41
   17.1634070166496890    5.6980521444302141    1.9209516548443859    T  T  T            O42
    2.5256980306944796    5.6142216251607406    1.9209516548443859    F  F  F            O43
   42.0372636815034753    5.5898427400736974    1.9209516548443859    F  F  F            O44
   43.5952343084474663    1.0335870452003175    1.9209516548443859    F  F  F            O45
    9.0774117761347615    3.3830736031559132    1.9209516548443859    F  F  F            O46
   18.8827241421596881    3.5310430967017914    1.9209516548443859    T  T  T            O47
   45.2137140637184629    3.2878179727181283    1.9209516548443859    F  F  F            O48
