cif2pos.py
   1.000
   43.6686756529434632    0.0000000000000000    0.0000000000000000
    0.0000000000000000    6.7963468884617413    0.0000000000000000
    0.0000000000000000    0.0000000000000000    3.8419033096887718
   U    O 
   24   48
Selective Dynamics
Cartesian
    1.6675116306513553    6.7419070975532431    0.0000000000000000    F  F  F             U1
    4.9051169934370256    2.2437626276601375    0.0000000000000000    F  F  F             U2
    8.1597130759895506    4.5417214769248258    0.0000000000000000    F  F  F             U3
   11.4162026279778814    0.0504354594382496    0.0000000000000000    T  T  T             U4
   14.6796849006041938    2.3483678573878608    0.0000000000000000    T  T  T             U5
   17.8851097217308741    4.6339963728170739    0.0000000000000000    T  T  T             U6
   25.7769254722213326    0.0303450953408126    0.0000000000000000    T  T  T             U7
   28.9990111668027133    4.5510538378756431    0.0000000000000000    T  T  T             U8
   32.2507653639982124    2.2467953944745322    0.0000000000000000    T  T  T             U9
   35.4934336947911504    6.7517003380002141    0.0000000000000000    F  F  F            U10
   38.7484929390710633    4.4434568185712138    0.0000000000000000    F  F  F            U11
   41.9639755625724646    2.1504674513234425    0.0000000000000000    F  F  F            U12
    1.6578126628583156    3.3451644564799832    1.9209516548443859    F  F  F            U13
   25.7860539342574029    3.4327742894589091    1.9209516548443859    T  T  T            U14
   28.9935839145184175    1.1471525209623223    1.9209516548443859    T  T  T            U15
   11.4187353283781956    3.4485138266751663    1.9209516548443859    T  T  T            U16
    4.9068679471477763    5.6407354761538135    1.9209516548443859    F  F  F            U17
   32.2558037160643778    5.6429615055062410    1.9209516548443859    T  T  T            U18
   14.6743829006475828    5.7520965090756864    1.9209516548443859    T  T  T            U19
   35.4921509004597766    3.3539693927653627    1.9209516548443859    F  F  F            U20
    8.1588776667575296    1.1437695281765226    1.9209516548443859    F  F  F            U21
   38.7501791681470280    1.0496466257898514    1.9209516548443859    F  F  F            U22
   17.8956044991697141    1.2334279988889882    1.9209516548443859    T  T  T            U23
   41.9629082948984973    5.5503239991675297    1.9209516548443859    F  F  F            U24
    0.8805448507548748    4.4612486561564015    0.0000000000000000    F  F  F             O1
    2.4946006740862350    2.2232165390275274    0.0000000000000000    F  F  F             O2
    4.1084628809352504    6.7688019730414579    0.0000000000000000    F  F  F             O3
    5.7438818290694638    4.5206824783262709    0.0000000000000000    F  F  F             O4
    7.3638382732403294    2.2700227464753699    0.0000000000000000    F  F  F             O5
    8.9975914456720165    0.0225103294413850    0.0000000000000000    F  F  F             O6
   10.6052757046343515    4.5718876706262961    0.0000000000000000    T  T  T             O7
   12.2422024916997145    2.3265682677026840    0.0000000000000000    T  T  T             O8
   13.8661092642415866    0.0718536171757220    0.0000000000000000    T  T  T             O9
   15.5290962900454392    4.6328305348783294    0.0000000000000000    T  T  T            O10
   17.0655072452389192    2.3668899261650891    0.0000000000000000    T  T  T            O11
   18.7030328171577622    0.1264164948867620    0.0000000000000000    T  T  T            O12
   25.0198461539774506    2.3075356893041281    0.0000000000000000    T  T  T            O13
   26.6058130485670254    4.5921947057168007    0.0000000000000000    T  T  T            O14
   28.1881937919769960    0.0212602494368555    0.0000000000000000    T  T  T            O15
   29.8186655460819274    2.2776750379432991    0.0000000000000000    T  T  T            O16
   31.4485026810031698    4.5186080666856538    0.0000000000000000    T  T  T            O17
   33.0774537575211269    6.7614247111355619    0.0000000000000000    T  T  T            O18
   34.6974151719785837    2.2287562700781134    0.0000000000000000    F  F  F            O19
   36.3285173456122763    4.4750416250658258    0.0000000000000000    F  F  F            O20
   37.9584284164186485    6.7143377595801486    0.0000000000000000    F  F  F            O21
   39.5887179949747505    2.1711602404991939    0.0000000000000000    F  F  F            O22
   41.1625319133668413    4.3984338525742972    0.0000000000000000    F  F  F            O23
   42.7428934610650089    6.6900361516079370    0.0000000000000000    F  F  F            O24
   10.6054049411405806    1.1747718524676090    1.9209516548443859    T  T  T            O25
   24.9986245788656589    5.7199914526766156    1.9209516548443859    T  T  T            O26
   26.6254603126143792    1.1640821947332487    1.9209516548443859    T  T  T            O27
    0.8874655021099220    1.0470285032498499    1.9209516548443859    F  F  F            O28
   28.1600334445149727    3.4308044880513142    1.9209516548443859    T  T  T            O29
   12.2406164250816509    5.7244914027575042    1.9209516548443859    T  T  T            O30
    5.7439645429765021    1.1214962620842817    1.9209516548443859    F  F  F            O31
   29.8267569110137778    5.6640748068523417    1.9209516548443859    T  T  T            O32
   31.4484461862426201    1.1219500798341369    1.9209516548443859    T  T  T            O33
   13.8743351064399842    3.4794271301455879    1.9209516548443859    T  T  T            O34
    7.3658098799400280    5.6677151600823183    1.9209516548443859    F  F  F            O35
   33.0726742588434917    3.3687072905354443    1.9209516548443859    T  T  T            O36
   34.6976331964792308    5.6274882800747772    1.9209516548443859    F  F  F            O37
    4.1097895758633474    3.3673132434264441    1.9209516548443859    F  F  F            O38
   36.3295559747067074    1.0768553807464514    1.9209516548443859    F  F  F            O39
   15.5049953292649789    1.2240397514975321    1.9209516548443859    T  T  T            O40
   37.9529763572774854    3.3261398217717519    1.9209516548443859    F  F  F            O41
   17.0819034538507637    5.7921562400505149    1.9209516548443859    T  T  T            O42
    2.5048781130940991    5.6147458795447802    1.9209516548443859    F  F  F            O43
   39.6159112130990110    5.5591018729039323    1.9209516548443859    F  F  F            O44
   41.1409695215133979    1.0269390323882150    1.9209516548443859    F  F  F            O45
    8.9976992274230447    3.4204018239819134    1.9209516548443859    F  F  F            O46
   18.6828669023199545    3.5089869240472047    1.9209516548443859    T  T  T            O47
   42.7686790335615967    3.2717075472280310    1.9209516548443859    F  F  F            O48
