cif2pos.py
   1.000
   40.3378009073876669    0.0000000000000000    0.0000000000000000
    0.0000000000000000   13.1421435162302842    0.0000000000000000
    0.0000000000000000    0.0000000000000000    3.8761186333578821
   U    La   O 
   43    1   88
Selective Dynamics
Cartesian
    0.0000000000000000   12.5353308799855050    0.0000000000000000    F  F  F             U1
    5.4641934286520835   10.7680793814899065    0.0000000000000000    F  F  F             U2
   10.4285045922232502    8.3667015918472956    0.0000000000000000    T  T  T             U3
   15.6102317358172886    5.8954077137485275    0.0000000000000000    T  T  T             U4
    2.2604733597659576    3.5831580874270701    0.0000000000000000    F  F  F             U5
   17.1089001977434307    9.4664076092643530    0.0000000000000000    T  T  T             U6
    3.6131385825798259    7.1702576706677803    0.0000000000000000    F  F  F             U7
    8.7650676363483946    4.7879040023082657    0.0000000000000000    F  F  F             U8
   13.7822984262075536    2.3297368373302185    0.0000000000000000    T  T  T             U9
    7.0455068051721668    1.1842577625595996    0.0000000000000000    F  F  F            U10
   12.1580489875788906   11.9199081277225059    0.0000000000000000    T  T  T            U11
    2.2617022742936035   10.1491696584137898    1.9380593166789410    F  F  F            U12
    7.0580235349395624    7.7780596048043167    1.9380593166789410    F  F  F            U13
   12.1719941239493892    5.3617610817239703    1.9380593166789410    T  T  T            U14
   17.1182059522008387    2.8785985292267604    1.9380593166789410    T  T  T            U15
    3.6066429184644351    0.5962839696534746    1.9380593166789410    F  F  F            U16
   21.4411703494866508    6.9741407123604944    1.9380593166789410    T  T  T            U17
    5.4639747244954853    4.1904866912189274    1.9380593166789410    F  F  F            U18
   10.4343710323142318    1.7880030176529422    1.9380593166789410    T  T  T            U19
   15.5956133972183206   12.5070693348612281    1.9380593166789410    T  T  T            U20
    8.7679720945393331   11.3479630037670418    1.9380593166789410    F  F  F            U21
   13.7732573112174386    8.8877806480763848    1.9380593166789410    T  T  T            U22
   26.5425098268161186    2.4394697839739470    0.0000000000000000    T  T  T            U23
   31.5727332710383877    4.7879040023082657    0.0000000000000000    F  F  F            U24
   36.7246623248084276    7.1702576706677803    0.0000000000000000    F  F  F            U25
   23.2224047956718316    9.6705021703088843    0.0000000000000000    T  T  T            U26
   38.0773275476208255    3.5831580874270701    0.0000000000000000    F  F  F            U27
   24.7907929061536230    6.0437731727145350    0.0000000000000000    T  T  T            U28
   29.9113959066929276    8.3726763193593676    0.0000000000000000    T  T  T            U29
   34.8736074787355861   10.7680793814899065    0.0000000000000000    F  F  F            U30
   28.2027147735762043   11.9747332879177435    0.0000000000000000    T  T  T            U31
   33.2922941022160828    1.1842577625595996    0.0000000000000000    F  F  F            U32
   23.2191433383273846    3.0775374234152824    1.9380593166789410    T  T  T            U33
   28.1903567805844304    5.4075144856270718    1.9380593166789410    T  T  T            U34
   33.2797773724475192    7.7780596048043167    1.9380593166789410    F  F  F            U35
   38.0760986330931814   10.1491696584137898    1.9380593166789410    F  F  F            U36
   24.7897841017184959   12.6132781747816924    1.9380593166789410    T  T  T            U37
    0.0000000000000000    5.9667500804452756    1.9380593166789410    F  F  F            U38
   26.5362827340960230    9.0071104289107033    1.9380593166789410    T  T  T            U39
   31.5698288128480371   11.3479630037670418    1.9380593166789410    F  F  F            U40
   36.7311579889238189    0.5962839696534746    1.9380593166789410    F  F  F            U41
   29.9175584548178044    1.8002721665532690    1.9380593166789410    T  T  T            U42
   34.8738261828927705    4.1904866912189274    1.9380593166789410    F  F  F            U43
   21.4336570917016509    0.4139036860122637    0.0000000000000000    T  T  T            La1
    3.5312710190863581    9.4963666581296842    0.0000000000000000    F  F  F             O1
    8.3432713868074657    7.1712777135405954    0.0000000000000000    F  F  F             O2
   13.4081306701179948    4.7995196735657517    0.0000000000000000    T  T  T             O3
   18.2954947734946423    2.9747158850943651    0.0000000000000000    T  T  T             O4
    4.8863867433858426    0.0035607944122055    0.0000000000000000    F  F  F             O5
    1.3882155113005250    5.9444834165683131    0.0000000000000000    F  F  F             O6
    6.6846133375783721    3.5822991922354483    0.0000000000000000    F  F  F             O7
   11.6851203775434502    1.1661779290508600    0.0000000000000000    T  T  T             O8
   16.6204507016724463   11.5855843370252671    0.0000000000000000    T  T  T             O9
   10.0004998831748715   10.7383662088050951    0.0000000000000000    T  T  T            O10
   14.8103244407815602    8.3683896729307818    0.0000000000000000    T  T  T            O11
    4.1337918643752385   11.3837347793087940    1.9380593166789410    F  F  F            O12
    9.1634749845945986    8.9714394089216505    1.9380593166789410    F  F  F            O13
   14.2736767717874979    6.6208577168280502    1.9380593166789410    T  T  T            O14
    1.2188358591638315    4.0495768400859253    1.9380593166789410    F  F  F            O15
    5.8646599627354412    1.7657604171672714    1.9380593166789410    F  F  F            O16
    2.3534291758529964    7.8316946444925915    1.9380593166789410    F  F  F            O17
    7.4797081734068751    5.3864411326233181    1.9380593166789410    F  F  F            O18
   12.4551511793978484    3.0174109799092332    1.9380593166789410    T  T  T            O19
   17.3168708179214192    0.7989600614336880    1.9380593166789410    T  T  T            O20
   10.8800691846609840   12.5109084381007793    1.9380593166789410    T  T  T            O21
   15.7024838058083755    9.8893175993367208    1.9380593166789410    T  T  T            O22
    1.3903564121537157   12.5163527852034608    1.9380593166789410    F  F  F            O23
    6.6808687105494071   10.1739990229064894    1.9380593166789410    F  F  F            O24
   11.7565400071910684    7.7830480725037354    1.9380593166789410    T  T  T            O25
   16.6328708125706157    5.0452651604324767    1.9380593166789410    T  T  T            O26
    3.5375703019720355    2.9287846629810668    1.9380593166789410    F  F  F            O27
   18.2633255211194907    9.6045544669736422    1.9380593166789410    T  T  T            O28
    4.8979952136511473    6.5874272269786456    1.9380593166789410    F  F  F            O29
    9.9769019800395267    4.2053009908685572    1.9380593166789410    T  T  T            O30
   14.8867456358202457    1.7500007169186338    1.9380593166789410    T  T  T            O31
    8.3232185942055139    0.5707985208000855    1.9380593166789410    F  F  F            O32
   13.3723117983349855   11.2352628583126677    1.9380593166789410    T  T  T            O33
    1.2181303659718183   10.6221332740851384    0.0000000000000000    F  F  F            O34
    5.8772620913401479    8.3590460039746475    0.0000000000000000    F  F  F            O35
   10.8816229240064910    5.9870474047917872    0.0000000000000000    T  T  T            O36
   15.7727881580382867    3.3907206776549170    0.0000000000000000    T  T  T            O37
    2.3532512270952335    1.2661331151481912    0.0000000000000000    F  F  F            O38
   17.2915399589316863    7.4126058016586569    0.0000000000000000    T  T  T            O39
    4.1312771706089526    4.8203878383101184    0.0000000000000000    F  F  F            O40
    9.1664503230919081    2.3833321917989880    0.0000000000000000    F  F  F            O41
   14.2475989206046183   13.0795793580155060    0.0000000000000000    T  T  T            O42
    7.4817150240461121   11.9502003243219459    0.0000000000000000    F  F  F            O43
   12.4820132463411895    9.5227646316742387    0.0000000000000000    T  T  T            O44
   24.4797395540253149    3.6323898529988274    0.0000000000000000    T  T  T            O45
   29.4572403279750503    6.0008998758828191    0.0000000000000000    T  T  T            O46
   34.4605388160475172    8.3590460039746475    0.0000000000000000    F  F  F            O47
   39.1196705414161414   10.6221332740851384    0.0000000000000000    F  F  F            O48
   26.0031696273685036    0.0336160671320054    0.0000000000000000    T  T  T            O49
   22.5204190996493416    7.3511418364277947    0.0000000000000000    T  T  T            O50
   27.7534877594043436    9.5893576878558502    0.0000000000000000    T  T  T            O51
   32.8560858833418479   11.9502003243219459    0.0000000000000000    F  F  F            O52
   37.9845496802924316    1.2661331151481912    0.0000000000000000    F  F  F            O53
   31.1713505842954639    2.3833321917989880    0.0000000000000000    F  F  F            O54
   36.2065237367793031    4.8203878383101184    0.0000000000000000    F  F  F            O55
   25.1729650351120036    1.8161387295418623    1.9380593166789410    T  T  T            O56
   30.3106342634662873    4.1950422994409653    1.9380593166789410    T  T  T            O57
   35.4398056937368082    6.5874272269786456    1.9380593166789410    F  F  F            O58
   21.9740589685833640    9.2042410923121487    1.9380593166789410    T  T  T            O59
   26.9384830389190562   11.4340858406212753    1.9380593166789410    T  T  T            O60
   23.0883534383138347    5.3457898647049351    1.9380593166789410    T  T  T            O61
   28.6310323042082544    7.8117431946737259    1.9380593166789410    T  T  T            O62
   33.6569321968376727   10.1739990229064894    1.9380593166789410    F  F  F            O63
   38.9474444952333627   12.5163527852034608    1.9380593166789410    F  F  F            O64
   32.0145823131821530    0.5707985208000855    1.9380593166789410    F  F  F            O65
   36.8002306054165089    2.9287846629810668    1.9380593166789410    F  F  F            O66
   22.5359417730573810    0.6887269471675920    1.9380593166789410    T  T  T            O67
   27.7733796125312900    2.9852907649142923    1.9380593166789410    T  T  T            O68
   32.8580927339813798    5.3864411326233181    1.9380593166789410    F  F  F            O69
   37.9843717315340825    7.8316946444925915    1.9380593166789410    F  F  F            O70
   24.4627172437535982   10.3288354264234989    1.9380593166789410    T  T  T            O71
   39.1189650482235436    4.0495768400859253    1.9380593166789410    F  F  F            O72
   26.0889337623980602    6.6637190394430226    1.9380593166789410    T  T  T            O73
   31.1743259227933613    8.9714394089216505    1.9380593166789410    F  F  F            O74
   36.2040090430130164   11.3837347793087940    1.9380593166789410    F  F  F            O75
   29.4595118689899031   12.5588415791190897    1.9380593166789410    T  T  T            O76
   34.4731409446522221    1.7657604171672714    1.9380593166789410    F  F  F            O77
   21.9575477601638660    2.5740653384871965    0.0000000000000000    T  T  T            O78
   26.9839556303378458    4.7676099662696272    0.0000000000000000    T  T  T            O79
   31.9945295205799063    7.1712777135405954    0.0000000000000000    F  F  F            O80
   36.8065298883010144    9.4963666581296842    0.0000000000000000    F  F  F            O81
   23.3263219002712958   12.0169617131779276    0.0000000000000000    T  T  T            O82
   38.9495853960871443    5.9444834165683131    0.0000000000000000    F  F  F            O83
   25.1764923550078592    8.5227380239821748    0.0000000000000000    T  T  T            O84
   30.2776799323656185   10.7592343355714064    0.0000000000000000    T  T  T            O85
   35.4514141640009370    0.0035607944122055    0.0000000000000000    F  F  F            O86
   28.6123318332820418    1.2178601668588505    0.0000000000000000    T  T  T            O87
   33.6531875698098801    3.5822991922354483    0.0000000000000000    F  F  F            O88
