cif2pos.py
   1.000
   44.6686756529434632    0.0000000000000000    0.0000000000000000
    0.0000000000000000    6.7963468884617413    0.0000000000000000
    0.0000000000000000    0.0000000000000000    3.8419033096887718
   U    O 
   24   48
Selective Dynamics
Cartesian
    1.6336382601605244    6.7952536518129811    0.0000000000000000    F  F  F             U1
    4.8981774689625590    2.2655927305148849    0.0000000000000000    F  F  F             U2
    8.1627361399183496    4.5314234418361519    0.0000000000000000    F  F  F             U3
   11.4264530862318576    0.0080779945657793    0.0000000000000000    T  T  T             U4
   14.6879449729038694    2.2638764289923388    0.0000000000000000    T  T  T             U5
   17.9493220459138172    4.5202290116141901    0.0000000000000000    T  T  T             U6
   26.7125910231938128    6.7918999896275141    0.0000000000000000    T  T  T             U7
   29.9784243021919075    2.2655673859906935    0.0000000000000000    T  T  T             U8
   33.2431631630075515    4.5304154796887985    0.0000000000000000    T  T  T             U9
   36.5082671330773465    6.7962546843396670    0.0000000000000000    F  F  F            U10
   39.7731683681461021    2.2654031960728589    0.0000000000000000    F  F  F            U11
   43.0378034785548635    4.5293657440714314    0.0000000000000000    F  F  F            U12
    1.6336351399958822    3.3970921938147001    1.9209516548443859    F  F  F            U13
   26.7129337517010086    3.3931704309238553    1.9209516548443859    T  T  T            U14
   29.9781397794976705    5.6637445862088640    1.9209516548443859    T  T  T            U15
   11.4297123114729846    3.4077336003627634    1.9209516548443859    T  T  T            U16
    4.8984039369445798    5.6637277549531726    1.9209516548443859    F  F  F            U17
   33.2431964083969760    1.1322538596972254    1.9209516548443859    T  T  T            U18
   14.6878222601935953    5.6619851125389857    1.9209516548443859    T  T  T            U19
   36.5082832591548154    3.3980823914578870    1.9209516548443859    F  F  F            U20
    8.1623124546533603    1.1338847677591648    1.9209516548443859    F  F  F            U21
   39.7731678253636076    5.6635414020320205    1.9209516548443859    F  F  F            U22
   17.9460163137238951    1.1206053548096868    1.9209516548443859    T  T  T            U23
   43.0378204192966010    1.1312086793837770    1.9209516548443859    F  F  F            U24
    0.8137301793841049    4.5276033017664510    0.0000000000000000    F  F  F             O1
    2.4540071292640677    2.2662466169392674    0.0000000000000000    F  F  F             O2
    4.0784452792421835    6.7934049956262301    0.0000000000000000    F  F  F             O3
    5.7185431040005055    4.5351749834988562    0.0000000000000000    F  F  F             O4
    7.3423258894308336    2.2608624879943204    0.0000000000000000    F  F  F             O5
    8.9820631145804768    0.0045270542764150    0.0000000000000000    F  F  F             O6
   10.6080074279719199    4.5377963683627058    0.0000000000000000    T  T  T             O7
   12.2521715528663400    2.2790867661816114    0.0000000000000000    T  T  T             O8
   13.8769377422566844    0.0029704763692116    0.0000000000000000    T  T  T             O9
   15.4976713810200160    4.5256247458740724    0.0000000000000000    T  T  T            O10
   17.1238729030962169    2.2492360014704005    0.0000000000000000    T  T  T            O11
   18.7680554231142942    6.7891966411951952    0.0000000000000000    T  T  T            O12
   25.8917917024469055    4.5226169613245331    0.0000000000000000    T  T  T            O13
   27.5330780459309388    2.2632933551175780    0.0000000000000000    T  T  T            O14
   29.1586056974260188    6.7935087309036506    0.0000000000000000    T  T  T            O15
   30.7981767893124534    4.5361097343829613    0.0000000000000000    T  T  T            O16
   32.4232284247798503    2.2607931777946209    0.0000000000000000    T  T  T            O17
   34.0634964283019954    0.0026050017593701    0.0000000000000000    T  T  T            O18
   35.6877113515182032    4.5291231038273487    0.0000000000000000    F  F  F            O19
   37.3290422806987792    2.2672647887559920    0.0000000000000000    F  F  F            O20
   38.9531899901483527    6.7934566105039060    0.0000000000000000    F  F  F            O21
   40.5929191958703228    4.5347270880160746    0.0000000000000000    F  F  F            O22
   42.2186243927967837    2.2596273944147014    0.0000000000000000    F  F  F            O23
   43.8574690190794456    0.0016384913973780    0.0000000000000000    F  F  F            O24
   10.6088828375667319    1.1394429222666644    1.9209516548443859    T  T  T            O25
   25.8935125445999432    1.1249672309542125    1.9209516548443859    T  T  T            O26
   27.5327018807481352    5.6605635481749292    1.9209516548443859    T  T  T            O27
    0.8137733779685170    1.1295560238617510    1.9209516548443859    F  F  F            O28
   29.1589114189364942    3.3950189196919220    1.9209516548443859    T  T  T            O29
   12.2440283463142823    5.6784168477070400    1.9209516548443859    T  T  T            O30
    5.7184591831332465    1.1373435199975868    1.9209516548443859    F  F  F            O31
   30.7982835118658258    1.1376401972098005    1.9209516548443859    T  T  T            O32
   32.4231855234117816    5.6588140334084081    1.9209516548443859    T  T  T            O33
   13.8578813721447780    3.4085998839570415    1.9209516548443859    T  T  T            O34
    7.3428025659712315    5.6590842312505307    1.9209516548443859    F  F  F            O35
   34.0635901848822868    3.4006548004502615    1.9209516548443859    T  T  T            O36
   35.6876951700500413    1.1310718934428434    1.9209516548443859    F  F  F            O37
    4.0780753028548054    3.3953209167486702    1.9209516548443859    F  F  F            O38
   37.3288610796256037    5.6655192214360435    1.9209516548443859    F  F  F            O39
   15.5183030434162763    1.1188748477799022    1.9209516548443859    T  T  T            O40
   38.9531324269333084    3.3954986112580472    1.9209516548443859    F  F  F            O41
   17.1331162023977086    5.6450518752442882    1.9209516548443859    T  T  T            O42
    2.4538342425719746    5.6644855245262562    1.9209516548443859    F  F  F            O43
   40.5927842851736145    1.1367468163375776    1.9209516548443859    F  F  F            O44
   42.2183256119442163    5.6578588349840810    1.9209516548443859    F  F  F            O45
    8.9814318643762778    3.4016410918593389    1.9209516548443859    F  F  F            O46
   18.7672913105504087    3.3905028322698163    1.9209516548443859    T  T  T            O47
   43.8574758207297535    3.3999467610992027    1.9209516548443859    F  F  F            O48
