cif2pos.py
   1.000
   42.6686756529434632    0.0000000000000000    0.0000000000000000
    0.0000000000000000    6.7963468884617413    0.0000000000000000
    0.0000000000000000    0.0000000000000000    3.8419033096887718
   U    La   O 
   23    1   48
Selective Dynamics
Cartesian
    1.6515662758114071    6.7613247645821168    0.0000000000000000    F  F  F             U1
    4.8860701202154955    2.2558078850929824    0.0000000000000000    F  F  F             U2
    8.1217163788519429    4.5244694989853187    0.0000000000000000    F  F  F             U3
   11.3629169780363615    6.7915617061022342    0.0000000000000000    T  T  T             U4
   14.6046411669209579    2.2903071109921327    0.0000000000000000    T  T  T             U5
   17.8678049930628262    4.5510452497155116    0.0000000000000000    T  T  T             U6
   28.0597030411824448    4.5932293618755375    0.0000000000000000    T  T  T             U7
   31.2938014020315940    2.2805596276695761    0.0000000000000000    T  T  T             U8
   34.5398862701435476    6.7804678708485078    0.0000000000000000    F  F  F             U9
   37.7872979695851612    4.4822393811649910    0.0000000000000000    F  F  F            U10
   40.9872275652472524    2.1875917301140011    0.0000000000000000    F  F  F            U11
    1.6518292912557664    3.3625286806774803    1.9209516548443859    F  F  F            U12
   24.8167182528275738    3.4613255876899856    1.9209516548443859    T  T  T            U13
   28.0350636947144913    1.1958611651621267    1.9209516548443859    T  T  T            U14
   11.3609981828041775    3.3982301139967741    1.9209516548443859    T  T  T            U15
    4.8827285227217976    5.6520375574239479    1.9209516548443859    F  F  F            U16
   31.3005573052241566    5.6803305302739471    1.9209516548443859    T  T  T            U17
   14.6232478424083254    5.6836219352300974    1.9209516548443859    T  T  T            U18
   34.5408894504230446    3.3810705742101259    1.9209516548443859    F  F  F            U19
    8.1205463068199375    1.1251281333827223    1.9209516548443859    F  F  F            U20
   37.7850492446696862    1.0853236806499302    1.9209516548443859    F  F  F            U21
   17.7878424938391184    1.1805751489686083    1.9209516548443859    T  T  T            U22
   40.9875748968152678    5.5861044447056454    1.9209516548443859    F  F  F            U23
   24.7439852473787134    0.0326093274989403    0.0000000000000000    T  T  T            La1
    0.8698894212142141    4.4702627993058108    0.0000000000000000    F  F  F             O1
    2.4803482425952423    2.2362244878326640    0.0000000000000000    F  F  F             O2
    4.0889854427766084    6.7808393711880104    0.0000000000000000    F  F  F             O3
    5.7091098046683380    4.5324724382742962    0.0000000000000000    F  F  F             O4
    7.3184410959472714    2.2696709216458841    0.0000000000000000    F  F  F             O5
    8.9613115350111947    6.7786376535634680    0.0000000000000000    F  F  F             O6
   10.5692046850930410    4.5214654424531062    0.0000000000000000    T  T  T             O7
   12.1911466724843471    2.2722527878918570    0.0000000000000000    T  T  T             O8
   13.8183646898583561    0.0080243009623779    0.0000000000000000    T  T  T             O9
   15.4924865728834327    4.5694624010841780    0.0000000000000000    T  T  T            O10
   16.9798241729883870    2.2885292835408264    0.0000000000000000    T  T  T            O11
   18.6863180139313627    0.0880728699792779    0.0000000000000000    T  T  T            O12
   23.9250838540275588    2.6174635785426363    0.0000000000000000    T  T  T            O13
   25.7113986916179513    4.5039561808594675    0.0000000000000000    T  T  T            O14
   27.2416997586555958    0.0848032446371632    0.0000000000000000    T  T  T            O15
   28.8903531546059469    2.3179901013842348    0.0000000000000000    T  T  T            O16
   30.5104814668551860    4.5583404084892951    0.0000000000000000    T  T  T            O17
   32.1344516618239595    0.0023775471920331    0.0000000000000000    T  T  T            O18
   33.7526945776903986    2.2503065484774973    0.0000000000000000    F  F  F            O19
   35.3634170782613495    4.5097068475592037    0.0000000000000000    F  F  F            O20
   36.9891404652372273    6.7582391213334265    0.0000000000000000    F  F  F            O21
   38.6339997885079640    2.2030853059671309    0.0000000000000000    F  F  F            O22
   40.1768504264163582    4.4444650706892501    0.0000000000000000    F  F  F            O23
   41.7641524216189453    6.7036343002928218    0.0000000000000000    F  F  F            O24
   10.5639363310734673    1.1244094642069387    1.9209516548443859    T  T  T            O25
   24.0020440850062045    5.4295176553427815    1.9209516548443859    T  T  T            O26
   25.5282009670450414    1.3590533465807431    1.9209516548443859    T  T  T            O27
    0.8688917680685625    1.0717105590299221    1.9209516548443859    F  F  F            O28
   27.2577826665797822    3.4625789052862022    1.9209516548443859    T  T  T            O29
   12.1959606641857334    5.6676977137799156    1.9209516548443859    T  T  T            O30
    5.7203190225650040    1.1338478095879658    1.9209516548443859    F  F  F            O31
   28.8765672541248968    5.7172996691353628    1.9209516548443859    T  T  T            O32
   30.4888379529590487    1.1572834458994017    1.9209516548443859    T  T  T            O33
   13.8169209047865937    3.4246092200017486    1.9209516548443859    T  T  T            O34
    7.3340925341407779    5.6600723334398628    1.9209516548443859    F  F  F            O35
   32.1261149959124879    3.3959326023646961    1.9209516548443859    T  T  T            O36
   33.7343176254411716    5.6417159044675875    1.9209516548443859    F  F  F            O37
    4.0883290913743187    3.3820107765464278    1.9209516548443859    F  F  F            O38
   35.3820209576590159    1.1193207416677939    1.9209516548443859    F  F  F            O39
   15.4315294240405105    1.1592711119624874    1.9209516548443859    T  T  T            O40
   36.9957131279792151    3.3620964806655707    1.9209516548443859    F  F  F            O41
   17.0522852392115922    5.7267265779942091    1.9209516548443859    T  T  T            O42
    2.4810717692123649    5.6351993149044350    1.9209516548443859    F  F  F            O43
   38.6335318808063448    5.6007375472865828    1.9209516548443859    F  F  F            O44
   40.1774707556458992    1.0463493234173424    1.9209516548443859    F  F  F            O45
    8.9438557199956144    3.3905339892836333    1.9209516548443859    F  F  F            O46
   18.5496936552008762    3.3970649687110486    1.9209516548443859    T  T  T            O47
   41.7643318745913703    3.3060797751974023    1.9209516548443859    F  F  F            O48
