cif2pos.py
   1.000
   38.3378009073876669    0.0000000000000000    0.0000000000000000
    0.0000000000000000   13.1421435162302842    0.0000000000000000
    0.0000000000000000    0.0000000000000000    3.8761186333578821
   U  La  O 
   43  1  88
Direct
    0.0000000000000000    0.0000000000000000    0.0000000000000000     U1
    0.1363775698322129    0.8176124574190524    0.0000000000000000     U2
    0.4090471937865345    0.4547941305863503    0.0000000000000000     U4
    0.0455151978168118    0.2723346245196154    0.0000000000000000     U5
    0.4543861590395153    0.7274079015309738    0.0000000000000000     U6
    0.0909161199940982    0.5443596228112497    0.0000000000000000     U7
    0.2273462007483147    0.3634417383358652    0.0000000000000000     U8
    0.3636374192354737    0.1820305332932861    0.0000000000000000     U9
    0.1818668252181297    0.0905286614712466    0.0000000000000000    U10
    0.3181415029773618    0.9093002294587151    0.0000000000000000    U11
    0.0454200705800361    0.7721730677678025    0.5000000000000000    U12
    0.1818492879511879    0.5905170646954545    0.5000000000000000    U13
    0.3182094395776716    0.4092379885381803    0.5000000000000000    U14
    0.4545419932195784    0.2274148007844730    0.5000000000000000    U15
    0.0909653776633732    0.0449288698339103    0.5000000000000000    U16
    0.5000000000000000    0.5000000000000000    0.5000000000000000    U17
    0.1364894722795711    0.3176205543015129    0.5000000000000000    U18
    0.2727540176472871    0.1363832938786302    0.5000000000000000    U19
    0.4090119327048996    0.9548258371381877    0.5000000000000000    U20
    0.2272768376584438    0.8634684327534501    0.5000000000000000    U21
    0.3635601852939132    0.6821032801613214    0.5000000000000000    U22
    0.5000000000000000    0.0000000000000000    0.0000000000000000    U23
    0.6363437405565264    0.8178786882788600    0.0000000000000000    U24
    0.7727002768217801    0.6367139487362152    0.0000000000000000    U25
    0.9089793820528769    0.4547388549833116    0.0000000000000000    U26
    0.5455245489530682    0.2727823337547477    0.0000000000000000    U27
    0.9543467749975960    0.7268096530396519    0.0000000000000000    U28
    0.5908018314549395    0.5454520373721508    0.0000000000000000    U29
    0.7273421823712525    0.3637997280483489    0.0000000000000000    U30
    0.8636614238434319    0.1827137451466143    0.0000000000000000    U31
    0.6818477774924006    0.0909713747602012    0.0000000000000000    U32
    0.8181684909249682    0.9096205285442878    0.0000000000000000    U33
    0.5452225393248540    0.7722342691734525    0.5000000000000000    U34
    0.6817539845394620    0.5904837480960836    0.5000000000000000    U35
    0.8181473670993142    0.4096264163129675    0.5000000000000000    U36
    0.9545139673654432    0.2272638456233835    0.5000000000000000    U37
    0.5909799900646746    0.0452646739497595    0.5000000000000000    U38
    0.0000000000000000    0.5000000000000000    0.5000000000000000    U39
    0.6364886490870560    0.3186564230142253    0.5000000000000000    U40
    0.7727709424300073    0.1366766695800834    0.5000000000000000    U41
    0.9090044317333437    0.9548943041073770    0.5000000000000000    U42
    0.7272728564829762    0.8637171142420499    0.5000000000000000    U43
    0.8635410073096637    0.6822104808257237    0.5000000000000000    U44
    0.2727183488000549    0.6363626969017986    0.0000000000000000     U3
    0.0792361164827327    0.7269482606648339    0.0000000000000000     O1
    0.2157626755936946    0.5455686521042225    0.0000000000000000     O2
    0.3521279720126458    0.3642246930147692    0.0000000000000000     O3
    0.4885770896148287    0.1825885811472503    0.0000000000000000     O4
    0.1250000000000000    0.0000000000000000    0.0000000000000000     O5
    0.0344293853854012    0.4540105912451082    0.0000000000000000     O6
    0.1703807888172122    0.2728475392224681    0.0000000000000000     O7
    0.3065904644242607    0.0916908552203424    0.0000000000000000     O8
    0.4428773768474983    0.9099797840494901    0.0000000000000000     O9
    0.2612290302062448    0.8186984159305410    0.0000000000000000    O10
    0.3975312162341496    0.6371523280638414    0.0000000000000000    O11
    0.1023320294801238    0.8623855954574253    0.5000000000000000    O12
    0.2387319326577639    0.6812161224591478    0.5000000000000000    O13
    0.3750000000000000    0.5000000000000000    0.5000000000000000    O14
    0.0115275260171117    0.3177609768559080    0.5000000000000000    O15
    0.1479636934965924    0.1354323027983710    0.5000000000000000    O16
    0.0568489870034554    0.5890097853675798    0.5000000000000000    O17
    0.1934831062009650    0.4081353885463344    0.5000000000000000    O18
    0.3297990878122690    0.2268097346299527    0.5000000000000000    O19
    0.4661225869745635    0.0450800744988484    0.5000000000000000    O20
    0.2842887221641917    0.9542277636767622    0.5000000000000000    O21
    0.4204545433585452    0.7726148943085107    0.5000000000000000    O22
    0.0338334029466338    0.9544374133613402    0.5000000000000000    O23
    0.1702047632248025    0.7729635776511188    0.5000000000000000    O24
    0.3065431060459147    0.5916936586474577    0.5000000000000000    O25
    0.4428803252619318    0.4097699888303055    0.5000000000000000    O26
    0.0793509403144981    0.2271947494638837    0.5000000000000000    O27
    0.4881551034657008    0.6826539290417912    0.5000000000000000    O28
    0.1250000000000000    0.5000000000000000    0.5000000000000000    O29
    0.2613308712117046    0.3186744719657213    0.5000000000000000    O30
    0.3976227713240590    0.1371675484972528    0.5000000000000000    O31
    0.2157302884731607    0.0456086407838754    0.5000000000000000    O32
    0.3520226628051688    0.8644316387942155    0.5000000000000000    O33
    0.0114235817362598    0.8167349204651444    0.0000000000000000    O34
    0.1479647176031591    0.6354157851358764    0.0000000000000000    O35
    0.2843937966659240    0.4541501621745212    0.0000000000000000    O36
    0.4207123475766608    0.2723642240713673    0.0000000000000000    O37
    0.0571602618295017    0.0894341996618593    0.0000000000000000    O38
    0.4660678500514237    0.5447852554430099    0.0000000000000000    O39
    0.1026598729576946    0.3624113831203459    0.0000000000000000    O40
    0.2387969685783702    0.1812344806562862    0.0000000000000000    O41
    0.3750000000000000    0.0000000000000000    0.0000000000000000    O42
    0.1934016804756382    0.9081168440489051    0.0000000000000000    O43
    0.3297120345138609    0.7269151653781378    0.0000000000000000    O44
    0.5791485153096332    0.7268562505483089    0.0000000000000000    O45
    0.7156882777212914    0.5459284688123986    0.0000000000000000    O46
    0.8519057945398245    0.3647085490918016    0.0000000000000000    O47
    0.9889182525900679    0.1819359933278193    0.0000000000000000    O48
    0.6250000000000000    0.0000000000000000    0.0000000000000000    O49
    0.5340714943784661    0.4556573959763313    0.0000000000000000    O50
    0.6703482612980878    0.2734561120123544    0.0000000000000000    O51
    0.8066051706597079    0.0920121544504440    0.0000000000000000    O52
    0.9429049763522457    0.9102784728826805    0.0000000000000000    O53
    0.7612497013387198    0.8190579367184228    0.0000000000000000    O54
    0.8974519586120024    0.6374272768071165    0.0000000000000000    O55
    0.6024157939499233    0.8626463361526007    0.5000000000000000    O56
    0.7387765423178152    0.6815556755651571    0.5000000000000000    O57
    0.8750000000000000    0.5000000000000000    0.5000000000000000    O58
    0.5116405469058947    0.3179849285272169    0.5000000000000000    O59
    0.6479321473792012    0.1359077240444222    0.5000000000000000    O60
    0.5563278640851692    0.5911029605679374    0.5000000000000000    O61
    0.6935025350760782    0.4084775839288852    0.5000000000000000    O62
    0.8298520012265058    0.2271103329892767    0.5000000000000000    O63
    0.9662426379934175    0.0458120335360945    0.5000000000000000    O64
    0.7843313395348019    0.9546077526266359    0.5000000000000000    O65
    0.9206027745299465    0.7726887960954372    0.5000000000000000    O66
    0.5339259490772506    0.9551829485526397    0.5000000000000000    O67
    0.6701284439028825    0.7729866037362569    0.5000000000000000    O68
    0.8065951404210807    0.5919640925597847    0.5000000000000000    O69
    0.9428719606328499    0.4094640241152945    0.5000000000000000    O70
    0.5793701958450441    0.2280371148279556    0.5000000000000000    O71
    0.9881962330364829    0.6809269474725141    0.5000000000000000    O72
    0.6250000000000000    0.5000000000000000    0.5000000000000000    O73
    0.7613251697852448    0.3189315181698618    0.5000000000000000    O74
    0.8977528480942283    0.1377784284959773    0.5000000000000000    O75
    0.7156967266174732    0.0458601811605917    0.5000000000000000    O76
    0.8521033848525050    0.8646718479750675    0.5000000000000000    O77
    0.5113718410253298    0.8177516003364147    0.0000000000000000    O78
    0.6478535330888349    0.6349416193363453    0.0000000000000000    O79
    0.7842461016571960    0.4547077087025286    0.0000000000000000    O80
    0.9201795937235815    0.2731555777052037    0.0000000000000000    O81
    0.5571601087756619    0.0903688867239723    0.0000000000000000    O82
    0.9655951614124447    0.5449637527160718    0.0000000000000000    O83
    0.6026467598625871    0.3638851944688284    0.0000000000000000    O84
    0.7387986316522799    0.1814806233946840    0.0000000000000000    O85
    0.8750000000000000    0.0000000000000000    0.0000000000000000    O86
    0.6933876323763926    0.9082654776143926    0.0000000000000000    O87
    0.8297045042448588    0.7271954357380324    0.0000000000000000    O88
