cif2pos.py
   1.000
   41.6686756529434632    0.0000000000000000    0.0000000000000000
    0.0000000000000000    6.7963468884617413    0.0000000000000000
    0.0000000000000000    0.0000000000000000    3.8419033096887718
   U    Zr   O 
   23    1   48
Selective Dynamics
Cartesian
    1.6766700050638350    6.7396662903317681    0.0000000000000000    F  F  F             U1
    4.9254246181263195    2.2348990207365427    0.0000000000000000    F  F  F             U2
    8.1954796056987416    4.5249702400376215    0.0000000000000000    F  F  F             U3
   11.4494460091773949    0.0137668347363659    0.0000000000000000    T  T  T             U4
   14.7135799490701551    2.2974411311560328    0.0000000000000000    T  T  T             U5
   17.9256534101539309    4.5866105656787290    0.0000000000000000    T  T  T             U6
   26.9111306731721562    4.5797720706958920    0.0000000000000000    T  T  T             U7
   30.1816059522044533    2.3131771856690251    0.0000000000000000    T  T  T             U8
   33.4389834758974303    0.0034115683682511    0.0000000000000000    F  F  F             U9
   36.7055693486622729    4.4759683331192059    0.0000000000000000    F  F  F            U10
   39.9351780227624857    2.1731554355732974    0.0000000000000000    F  F  F            U11
    1.6657649129756822    3.3430012386500936    1.9209516548443859    F  F  F            U12
   23.7866335179890065    3.3326112195148188    1.9209516548443859    T  T  T            U13
   26.9453918755935966    1.1827527764675549    1.9209516548443859    T  T  T            U14
   11.4522882923943037    3.4094480479781946    1.9209516548443859    T  T  T            U15
    4.9277997248360315    5.6314053602819145    1.9209516548443859    F  F  F            U16
   30.1794019684343837    5.7093036479937025    1.9209516548443859    T  T  T            U17
   14.7021268008819295    5.6953954203371611    1.9209516548443859    T  T  T            U18
   33.4317212451583643    3.4032240753680552    1.9209516548443859    F  F  F            U19
    8.1918134701030656    1.1284783790481530    1.9209516548443859    F  F  F            U20
   36.7082527450312739    1.0830085474584679    1.9209516548443859    F  F  F            U21
   17.9312602445113534    1.1850676432477025    1.9209516548443859    T  T  T            U22
   39.9323466514631775    5.5732689589789794    1.9209516548443859    F  F  F            U23
   23.8937873505724667    0.0457844857021194    0.0000000000000000    T  T  T            Zr1
    0.8873101287151322    4.4585732608847319    0.0000000000000000    F  F  F             O1
    2.5072024030545403    2.2190857681958684    0.0000000000000000    F  F  F             O2
    4.1225649785644745    6.7607650334689913    0.0000000000000000    F  F  F             O3
    5.7681558352431832    4.5100793177868290    0.0000000000000000    F  F  F             O4
    7.3920740981837767    2.2537636686038702    0.0000000000000000    F  F  F             O5
    9.0341565657241976    0.0054397827352461    0.0000000000000000    F  F  F             O6
   10.6482808069519077    4.5561567202766966    0.0000000000000000    T  T  T             O7
   12.2680560189665595    2.2700479928675223    0.0000000000000000    T  T  T             O8
   13.8896855499066465    0.0313031212229065    0.0000000000000000    T  T  T             O9
   15.5448606274278927    4.5766849281571389    0.0000000000000000    T  T  T            O10
   17.1124257539010749    2.3368614505062149    0.0000000000000000    T  T  T            O11
   18.7242974215430316    0.0640841112646423    0.0000000000000000    T  T  T            O12
   23.0697523976932644    2.0488329583805389    0.0000000000000000    T  T  T            O13
   24.4926810448935086    4.4827019207072860    0.0000000000000000    T  T  T            O14
   26.0217334286994024    6.7731861663006407    0.0000000000000000    T  T  T            O15
   27.7507139918455046    2.3079208315111770    0.0000000000000000    T  T  T            O16
   29.3621607563488425    4.5842116012128837    0.0000000000000000    T  T  T            O17
   31.0069311901017954    0.0295826358847578    0.0000000000000000    T  T  T            O18
   32.6275748888556336    2.2785640214872336    0.0000000000000000    F  F  F            O19
   34.2742631047485560    4.5183174212123776    0.0000000000000000    F  F  F            O20
   35.9088366584367407    6.7489754272900768    0.0000000000000000    F  F  F            O21
   37.5481875355080632    2.2006170557563149    0.0000000000000000    F  F  F            O22
   39.1283670196089517    4.4204335233578620    0.0000000000000000    F  F  F            O23
   40.7194738160883603    6.7074025574918572    0.0000000000000000    F  F  F            O24
   10.6237441534023365    1.1569870959299839    1.9209516548443859    T  T  T            O25
   23.2387359982457866    5.9719679722427506    1.9209516548443859    T  T  T            O26
   24.7148147744114191    1.2568985530787817    1.9209516548443859    T  T  T            O27
    0.8939682245925126    1.0449996631738878    1.9209516548443859    F  F  F            O28
   26.1433615875732919    3.4710221379583008    1.9209516548443859    T  T  T            O29
   12.2969859128601158    5.6595786335818099    1.9209516548443859    T  T  T            O30
    5.7668189960801026    1.1101394718850419    1.9209516548443859    F  F  F            O31
   27.7593797902671824    5.7540991156197210    1.9209516548443859    T  T  T            O32
   29.3885527105363025    1.1935386687570106    1.9209516548443859    T  T  T            O33
   13.9074395915589779    3.4127347750781389    1.9209516548443859    T  T  T            O34
    7.3943885640650162    5.6520255867703071    1.9209516548443859    F  F  F            O35
   31.0097786774724007    3.4405518293323221    1.9209516548443859    T  T  T            O36
   32.6410167909343087    5.6839026050947288    1.9209516548443859    F  F  F            O37
    4.1240815052170818    3.3604164289257441    1.9209516548443859    F  F  F            O38
   34.2767924934714614    1.1239647602693137    1.9209516548443859    F  F  F            O39
   15.5541690498081966    1.1712733296864100    1.9209516548443859    T  T  T            O40
   35.9055444924797413    3.3624226908378629    1.9209516548443859    F  F  F            O41
   17.1125350737942945    5.7262539301730611    1.9209516548443859    T  T  T            O42
    2.5148612764096430    5.6110101717412872    1.9209516548443859    F  F  F            O43
   37.5742155752048177    5.5919984004660526    1.9209516548443859    F  F  F            O44
   39.1069428672691757    1.0499367318135790    1.9209516548443859    F  F  F            O45
    9.0341955664874920    3.4028848170673669    1.9209516548443859    F  F  F            O46
   18.7456446734343523    3.4639102586824442    1.9209516548443859    T  T  T            O47
   40.7469244847764429    3.2882416522030233    1.9209516548443859    F  F  F            O48
