Generated by VASPKIT code
 1.000000
   38.3378009073876669    0.0000000000000000    0.0000000000000000
    0.0000000000000000   13.1421435162302842    0.0000000000000000
    0.0000000000000000    0.0000000000000000    3.8761186333578821
   U    O 
    22    44
Direct
    0.0000000000000000    0.0000000000000000    0.0000000000000000     U001
    0.1363630000000000    0.8181820000000000    0.0000000000000000     U002
    0.2727280000000000    0.6363640000000000    0.0000000000000000     U003
    0.4090910000000000    0.4545450000000000    0.0000000000000000     U004
    0.0454540000000000    0.2727270000000000    0.0000000000000000     U005
    0.4545450000000000    0.7272729999999999    0.0000000000000000     U006
    0.0909090000000000    0.5454550000000000    0.0000000000000000     U007
    0.2272720000000000    0.3636360000000000    0.0000000000000000     U008
    0.3636360000000000    0.1818180000000000    0.0000000000000000     U009
    0.1818180000000000    0.0909090000000000    0.0000000000000000     U010
    0.3181820000000000    0.9090910000000000    0.0000000000000000     U011
    0.0454550000000000    0.7727270000000001    0.5000000000000000     U012
    0.1818180000000000    0.5909090000000000    0.5000000000000000     U013
    0.3181820000000000    0.4090910000000000    0.5000000000000000     U014
    0.4545450000000000    0.2272730000000000    0.5000000000000000     U015
    0.0909090000000000    0.0454550000000000    0.5000000000000000     U016
    0.5000000000000000    0.5000000000000000    0.5000000000000000     U017
    0.1363630000000000    0.3181820000000000    0.5000000000000000     U018
    0.2727280000000000    0.1363640000000000    0.5000000000000000     U019
    0.4090910000000000    0.9545450000000000    0.5000000000000000     U020
    0.2272720000000000    0.8636360000000000    0.5000000000000000     U021
    0.3636360000000000    0.6818180000000000    0.5000000000000000     U022
    0.0795450000000000    0.7272729999999999    0.0000000000000000     O001
    0.2159090000000000    0.5454550000000000    0.0000000000000000     O002
    0.3522720000000000    0.3636360000000000    0.0000000000000000     O003
    0.4786360000000000    0.1818180000000000    0.0000000000000000     O004
    0.1250000000000000    0.0000000000000000    0.0000000000000000     O005
    0.0340910000000000    0.4545450000000000    0.0000000000000000     O006
    0.1704540000000000    0.2727270000000000    0.0000000000000000     O007
    0.3068180000000000    0.0909090000000000    0.0000000000000000     O008
    0.4431820000000000    0.9090910000000000    0.0000000000000000     O009
    0.2613630000000000    0.8181820000000000    0.0000000000000000     O010
    0.3977270000000000    0.6363640000000000    0.0000000000000000     O011
    0.1022730000000000    0.8636360000000000    0.5000000000000000     O012
    0.2386360000000000    0.6818180000000000    0.5000000000000000     O013
    0.3750000000000000    0.5000000000000000    0.5000000000000000     O014
    0.0213630000000000    0.3181820000000000    0.5000000000000000     O015
    0.1477280000000000    0.1363640000000000    0.5000000000000000     O016
    0.0568180000000000    0.5909090000000000    0.5000000000000000     O017
    0.1931820000000000    0.4090910000000000    0.5000000000000000     O018
    0.3295450000000000    0.2272730000000000    0.5000000000000000     O019
    0.4659090000000000    0.0454550000000000    0.5000000000000000     O020
    0.2840910000000000    0.9545450000000000    0.5000000000000000     O021
    0.4204540000000000    0.7727270000000001    0.5000000000000000     O022
    0.0340910000000000    0.9545450000000000    0.5000000000000000     O023
    0.1704540000000000    0.7727270000000001    0.5000000000000000     O024
    0.3068180000000000    0.5909090000000000    0.5000000000000000     O025
    0.4431820000000000    0.4090910000000000    0.5000000000000000     O026
    0.0795450000000000    0.2272730000000000    0.5000000000000000     O027
    0.4786360000000000    0.6818180000000000    0.5000000000000000     O028
    0.1250000000000000    0.5000000000000000    0.5000000000000000     O029
    0.2613630000000000    0.3181820000000000    0.5000000000000000     O030
    0.3977270000000000    0.1363640000000000    0.5000000000000000     O031
    0.2159090000000000    0.0454550000000000    0.5000000000000000     O032
    0.3522720000000000    0.8636360000000000    0.5000000000000000     O033
    0.0213640000000000    0.8181820000000000    0.0000000000000000     O034
    0.1477280000000000    0.6363640000000000    0.0000000000000000     O035
    0.2840910000000000    0.4545450000000000    0.0000000000000000     O036
    0.4204540000000000    0.2727270000000000    0.0000000000000000     O037
    0.0568180000000000    0.0909090000000000    0.0000000000000000     O038
    0.4659090000000000    0.5454550000000000    0.0000000000000000     O039
    0.1022730000000000    0.3636360000000000    0.0000000000000000     O040
    0.2386360000000000    0.1818180000000000    0.0000000000000000     O041
    0.3750000000000000    0.0000000000000000    0.0000000000000000     O042
    0.1931820000000000    0.9090910000000000    0.0000000000000000     O043
    0.3295450000000000    0.7272729999999999    0.0000000000000000     O044
