cif2pos.py
   1.000
   39.6686756529434632    0.0000000000000000    0.0000000000000000
    0.0000000000000000    6.7963468884617413    0.0000000000000000
    0.0000000000000000    0.0000000000000000    3.8419033096887718
   U    Zr   O 
   23    1   48
Selective Dynamics
Cartesian
    1.6766700050639862    6.7396662903317672    0.0000000000000000    F  F  F             U1
    4.9254246181261960    2.2348990207365427    0.0000000000000000    F  F  F             U2
    8.1954796056988606    4.5249702400376215    0.0000000000000000    F  F  F             U3
   11.4555308375831100    0.0229195668663581    0.0000000000000000    T  T  T             U4
   14.7415765757504040    2.2843614636434895    0.0000000000000000    T  T  T             U5
   17.9025731016489651    4.5762696578843229    0.0000000000000000    T  T  T             U6
   24.9076163737362748    4.6014693373944757    0.0000000000000000    T  T  T             U7
   28.1658323584187684    2.3090233788745063    0.0000000000000000    T  T  T             U8
   31.4389834758972384    0.0034115683682511    0.0000000000000000    F  F  F             U9
   34.7055693486620385    4.4759683331192059    0.0000000000000000    F  F  F            U10
   37.9351780227625497    2.1731554355732974    0.0000000000000000    F  F  F            U11
    1.6657649129755330    3.3430012386500936    1.9209516548443859    F  F  F            U12
   21.7367540491696971    3.3799763659147763    1.9209516548443859    T  T  T            U13
   24.9160699493269426    1.1947408832905058    1.9209516548443859    T  T  T            U14
   11.4674818536541920    3.4179167857595645    1.9209516548443859    T  T  T            U15
    4.9277997248358245    5.6314053602819145    1.9209516548443859    F  F  F            U16
   28.1733149426711691    5.7088024319955695    1.9209516548443859    T  T  T            U17
   14.7184516069597873    5.6961821085119517    1.9209516548443859    T  T  T            U18
   31.4317212451583359    3.4032240753680552    1.9209516548443859    F  F  F            U19
    8.1918134701030851    1.1284783790481530    1.9209516548443859    F  F  F            U20
   34.7082527450310749    1.0830085474584679    1.9209516548443859    F  F  F            U21
   18.0286204632678526    1.1284338967863001    1.9209516548443859    T  T  T            U22
   37.9323466514632273    5.5732689589789794    1.9209516548443859    F  F  F            U23
   21.8145463075452675    0.0710262724804331    0.0000000000000000    T  T  T            Zr1
    0.8873101287153793    4.4585732608847319    0.0000000000000000    F  F  F             O1
    2.5072024030544089    2.2190857681958684    0.0000000000000000    F  F  F             O2
    4.1225649785647018    6.7607650334689913    0.0000000000000000    F  F  F             O3
    5.7681558352429994    4.5100793177868290    0.0000000000000000    F  F  F             O4
    7.3920740981837980    2.2537636686038702    0.0000000000000000    F  F  F             O5
    9.0341565657243414    0.0054397827352461    0.0000000000000000    F  F  F             O6
   10.6624272466341576    4.5463242590343009    0.0000000000000000    T  T  T             O7
   12.3054742272025894    2.2938313536486299    0.0000000000000000    T  T  T             O8
   13.9398122652059762    0.0395530329008895    0.0000000000000000    T  T  T             O9
   15.5442142962863787    4.5505273423557373    0.0000000000000000    T  T  T            O10
   17.1930916652011128    2.3048985373531568    0.0000000000000000    T  T  T            O11
   18.6932048626347616    6.7438478937451611    0.0000000000000000    T  T  T            O12
   20.9644939815296034    2.0412288728658363    0.0000000000000000    T  T  T            O13
   22.4068794866133416    4.5156747098695220    0.0000000000000000    T  T  T            O14
   23.9824946255374947    6.7755626093483245    0.0000000000000000    T  T  T            O15
   25.7509352266176315    2.2913273332006883    0.0000000000000000    T  T  T            O16
   27.3568633564010639    4.5758551547515278    0.0000000000000000    T  T  T            O17
   29.0029318419487687    0.0269746555074366    0.0000000000000000    T  T  T            O18
   30.6275748888555803    2.2785640214872336    0.0000000000000000    F  F  F            O19
   32.2742631047485631    4.5183174212123776    0.0000000000000000    F  F  F            O20
   33.9088366584367691    6.7489754272900768    0.0000000000000000    F  F  F            O21
   35.5481875355081058    2.2006170557563149    0.0000000000000000    F  F  F            O22
   37.1283670196090370    4.4204335233578620    0.0000000000000000    F  F  F            O23
   38.7194738160884455    6.7074025574918572    0.0000000000000000    F  F  F            O24
   10.6576204292587828    1.1493494591204647    1.9209516548443859    T  T  T            O25
   21.1602502208312870    6.0564386725455037    1.9209516548443859    T  T  T            O26
   22.6798743588855132    1.2996012595410031    1.9209516548443859    T  T  T            O27
    0.8939682245925716    1.0449996631738878    1.9209516548443859    F  F  F            O28
   24.1791018293755258    3.5014936531999470    1.9209516548443859    T  T  T            O29
   12.2952050091394458    5.6991794208459172    1.9209516548443859    T  T  T            O30
    5.7668189960799427    1.1101394718850419    1.9209516548443859    F  F  F            O31
   25.7503814605211865    5.7674511215818729    1.9209516548443859    T  T  T            O32
   27.3819840515337489    1.1815619540323341    1.9209516548443859    T  T  T            O33
   13.9215633598604072    3.4265837568469526    1.9209516548443859    T  T  T            O34
    7.3943885640651317    5.6520255867703071    1.9209516548443859    F  F  F            O35
   29.0204840814914142    3.4547242580180919    1.9209516548443859    T  T  T            O36
   30.6410167909343407    5.6839026050947288    1.9209516548443859    F  F  F            O37
    4.1240815052168625    3.3604164289257441    1.9209516548443859    F  F  F            O38
   32.2767924934715751    1.1239647602693137    1.9209516548443859    F  F  F            O39
   15.6293282510621925    1.1610021221320013    1.9209516548443859    T  T  T            O40
   33.9055444924798906    3.3624226908378625    1.9209516548443859    F  F  F            O41
   17.1011079680484528    5.6807412191716242    1.9209516548443859    T  T  T            O42
    2.5148612764095915    5.6110101717412872    1.9209516548443859    F  F  F            O43
   35.5742155752048888    5.5919984004660526    1.9209516548443859    F  F  F            O44
   37.1069428672693675    1.0499367318135790    1.9209516548443859    F  F  F            O45
    9.0341955664875719    3.4028848170673669    1.9209516548443859    F  F  F            O46
   18.8316226383174197    3.5151343609684731    1.9209516548443859    T  T  T            O47
   38.7469244847764003    3.2882416522030233    1.9209516548443859    F  F  F            O48
