cif2pos.py
   1.000
   46.1686756529434632    0.0000000000000000    0.0000000000000000
    0.0000000000000000    6.7963468884617413    0.0000000000000000
    0.0000000000000000    0.0000000000000000    3.8419033096887718
   U    O 
   24   48
Selective Dynamics
Cartesian
    1.6675116306512625    6.7419070975532431    0.0000000000000000    F  F  F             U1
    4.9051169934369865    2.2437626276601375    0.0000000000000000    F  F  F             U2
    8.1597130759896128    4.5417214769248258    0.0000000000000000    F  F  F             U3
   11.4111635988941629    0.0445416567872909    0.0000000000000000    T  T  T             U4
   14.6677222577827315    2.3482332145668932    0.0000000000000000    T  T  T             U5
   17.8774222169784665    4.6364020905817904    0.0000000000000000    T  T  T             U6
   28.2439782523771505    0.0551796783456365    0.0000000000000000    T  T  T             U7
   31.4875188413195595    4.5554036172414829    0.0000000000000000    T  T  T             U8
   34.7409000603393778    2.2565385596687588    0.0000000000000000    T  T  T             U9
   37.9934336947911717    6.7517003380002141    0.0000000000000000    F  F  F            U10
   41.2484929390711841    4.4434568185712138    0.0000000000000000    F  F  F            U11
   44.4639755625725357    2.1504674513234425    0.0000000000000000    F  F  F            U12
    1.6578126628584584    3.3451644564799832    1.9209516548443859    F  F  F            U13
   28.2439858273646074    3.4533663908339793    1.9209516548443859    T  T  T            U14
   31.4874571346796159    1.1572165651009709    1.9209516548443859    T  T  T            U15
   11.4113387154396975    3.4425818998737885    1.9209516548443859    T  T  T            U16
    4.9068679471478331    5.6407354761538135    1.9209516548443859    F  F  F            U17
   34.7409526026668161    5.6549088836367591    1.9209516548443859    T  T  T            U18
   14.6676520014318044    5.7464282439585386    1.9209516548443859    T  T  T            U19
   37.9921509004597908    3.3539693927653627    1.9209516548443859    F  F  F            U20
    8.1588776667574727    1.1437695281765226    1.9209516548443859    F  F  F            U21
   41.2501791681470635    1.0496466257898514    1.9209516548443859    F  F  F            U22
   17.8774456889994191    1.2382239620133439    1.9209516548443859    T  T  T            U23
   44.4629082948984760    5.5503239991675297    1.9209516548443859    F  F  F            U24
    0.8805448507549116    4.4612486561564015    0.0000000000000000    F  F  F             O1
    2.4946006740862749    2.2232165390275274    0.0000000000000000    F  F  F             O2
    4.1084628809351527    6.7688019730414579    0.0000000000000000    F  F  F             O3
    5.7438818290695179    4.5206824783262709    0.0000000000000000    F  F  F             O4
    7.3638382732402512    2.2700227464753699    0.0000000000000000    F  F  F             O5
    8.9975914456720236    0.0225103294413850    0.0000000000000000    F  F  F             O6
   10.6161189168164203    4.5680209706531496    0.0000000000000000    T  T  T             O7
   12.2474751638726786    2.3210984712433378    0.0000000000000000    T  T  T             O8
   13.8741375676743885    0.0745295304374562    0.0000000000000000    T  T  T             O9
   15.5201675665848740    4.6279477700697971    0.0000000000000000    T  T  T            O10
   17.0681387064893393    2.3802979652020917    0.0000000000000000    T  T  T            O11
   18.6673071124750685    0.1192276092985328    0.0000000000000000    T  T  T            O12
   27.4662838152448927    2.3449868976388490    0.0000000000000000    T  T  T            O13
   29.0803455769239747    4.5774453404914324    0.0000000000000000    T  T  T            O14
   30.6910491325163477    0.0312099755386348    0.0000000000000000    T  T  T            O15
   32.3258053591480987    2.2781653028967583    0.0000000000000000    T  T  T            O16
   33.9462206973608502    4.5295706831054856    0.0000000000000000    T  T  T            O17
   35.5798785761976148    6.7752325669758111    0.0000000000000000    T  T  T            O18
   37.1974151719784984    2.2287562700781134    0.0000000000000000    F  F  F            O19
   38.8285173456121342    4.4750416250658258    0.0000000000000000    F  F  F            O20
   40.4584284164186840    6.7143377595801486    0.0000000000000000    F  F  F            O21
   42.0887179949748500    2.1711602404991939    0.0000000000000000    F  F  F            O22
   43.6625319133668128    4.3984338525742972    0.0000000000000000    F  F  F            O23
   45.2428934610650515    6.6900361516079370    0.0000000000000000    F  F  F            O24
   10.6162207834421682    1.1699579030421379    1.9209516548443859    T  T  T            O25
   27.4662632918226137    5.7431530968361875    1.9209516548443859    T  T  T            O26
   29.0803009503806855    1.1792950003439873    1.9209516548443859    T  T  T            O27
    0.8874655021098886    1.0470285032498499    1.9209516548443859    F  F  F            O28
   30.6910871005347943    3.4293106291998146    1.9209516548443859    T  T  T            O29
   12.2473712624418916    5.7191884089959117    1.9209516548443859    T  T  T            O30
    5.7439645429765029    1.1214962620842817    1.9209516548443859    F  F  F            O31
   32.3257497813071382    5.6762959381005142    1.9209516548443859    T  T  T            O32
   33.9462505282024765    1.1311610705605457    1.9209516548443859    T  T  T            O33
   13.8742051185358832    3.4726474826518858    1.9209516548443859    T  T  T            O34
    7.3658098799399898    5.6677151600823183    1.9209516548443859    F  F  F            O35
   35.5793064029831712    3.3772257833063493    1.9209516548443859    T  T  T            O36
   37.1976331964791456    5.6274882800747772    1.9209516548443859    F  F  F            O37
    4.1097895758633260    3.3673132434264441    1.9209516548443859    F  F  F            O38
   38.8295559747067358    1.0768553807464514    1.9209516548443859    F  F  F            O39
   15.5202291263112837    1.2297410528510793    1.9209516548443859    T  T  T            O40
   40.4529763572774144    3.3261398217717519    1.9209516548443859    F  F  F            O41
   17.0681139055929414    5.7784647524991630    1.9209516548443859    T  T  T            O42
    2.5048781130942519    5.6147458795447802    1.9209516548443859    F  F  F            O43
   42.1159112130989399    5.5591018729039323    1.9209516548443859    F  F  F            O44
   43.6409695215135542    1.0269390323882150    1.9209516548443859    F  F  F            O45
    8.9976992274230092    3.4204018239819134    1.9209516548443859    F  F  F            O46
   18.6672762822343863    3.5174007459886876    1.9209516548443859    T  T  T            O47
   45.2686790335616962    3.2717075472280310    1.9209516548443859    F  F  F            O48
