cif2pos.py
   1.000
   44.8378009073876669    0.0000000000000000    0.0000000000000000
    0.0000000000000000   13.1421435162302842    0.0000000000000000
    0.0000000000000000    0.0000000000000000    3.8761186333578821
   U    La   O 
   43    1   88
Selective Dynamics
Cartesian
    0.0000000000000000   12.5353308799855050    0.0000000000000000    F  F  F             U1
    5.4641934286519618   10.7680793814899065    0.0000000000000000    F  F  F             U2
   10.4051441622621716    8.3658451522015334    0.0000000000000000    T  T  T             U3
   15.5417007528353714    5.9509473653197009    0.0000000000000000    T  T  T             U4
    2.2604733597658657    3.5831580874270701    0.0000000000000000    F  F  F             U5
   16.8971728847054550    9.5521686069440666    0.0000000000000000    T  T  T             U6
    3.6131385825797948    7.1702576706677803    0.0000000000000000    F  F  F             U7
    8.7650676363483200    4.7879040023082657    0.0000000000000000    F  F  F             U8
   13.6741206887730478    2.3723796656968141    0.0000000000000000    T  T  T             U9
    7.0455068051722440    1.1842577625595996    0.0000000000000000    F  F  F            U10
   12.1161915183271898   11.9425140691429235    0.0000000000000000    T  T  T            U11
    2.2617022742936794   10.1491696584137898    1.9380593166789410    F  F  F            U12
    7.0580235349395490    7.7780596048043167    1.9380593166789410    F  F  F            U13
   12.1173124676616144    5.3888861922294184    1.9380593166789410    T  T  T            U14
   16.8914927866207556    2.9628973144530821    1.9380593166789410    T  T  T            U15
    3.6066429184644790    0.5962839696534746    1.9380593166789410    F  F  F            U16
   25.6689004536938299    7.1601231955065083    1.9380593166789410    T  T  T            U17
    5.4639747244954080    4.1904866912189283    1.9380593166789410    F  F  F            U18
   10.3856677007236193    1.7832429932088165    1.9380593166789410    T  T  T            U19
   15.5659291106798694   12.5599501680355878    1.9380593166789410    T  T  T            U20
    8.7679720945392319   11.3479630037670418    1.9380593166789410    F  F  F            U21
   13.7030019346647851    8.9501844283942749    1.9380593166789410    T  T  T            U22
   31.1636802186149069    2.3723796656968141    0.0000000000000000    T  T  T            U23
   36.0727332710385440    4.7879040023082657    0.0000000000000000    F  F  F            U24
   41.2246623248084205    7.1702576706677803    0.0000000000000000    F  F  F            U25
   27.9406280226827697    9.5521686069440666    0.0000000000000000    T  T  T            U26
   42.5773275476207047    3.5831580874270701    0.0000000000000000    F  F  F            U27
   29.2961001545528532    5.9509473653197009    0.0000000000000000    T  T  T            U28
   34.4326567451249446    8.3658451522015334    0.0000000000000000    T  T  T            U29
   39.3736074787357282   10.7680793814899065    0.0000000000000000    F  F  F            U30
   32.7216093890602124   11.9425140691429235    0.0000000000000000    T  T  T            U31
   37.7922941022159762    1.1842577625595996    0.0000000000000000    F  F  F            U32
   27.9463081207671813    2.9628973144530821    1.9380593166789410    T  T  T            U33
   32.7204884397268643    5.3888861922294184    1.9380593166789410    T  T  T            U34
   37.7797773724475903    7.7780596048043167    1.9380593166789410    F  F  F            U35
   42.5760986330931814   10.1491696584137898    1.9380593166789410    F  F  F            U36
   29.2718717967080906   12.5599501680355878    1.9380593166789410    T  T  T            U37
    0.0000000000000000    5.9667500804452756    1.9380593166789410    F  F  F            U38
   31.1347989727234413    8.9501844283942749    1.9380593166789410    T  T  T            U39
   36.0698288128481650   11.3479630037670418    1.9380593166789410    F  F  F            U40
   41.2311579889237336    0.5962839696534746    1.9380593166789410    F  F  F            U41
   34.4521332066643211    1.7832429932088165    1.9380593166789410    T  T  T            U42
   39.3738261828927989    4.1904866912189283    1.9380593166789410    F  F  F            U43
   25.6689004536938299    0.5766608778963614    0.0000000000000000    T  T  T            La1
    3.5312710190864491    9.4963666581296842    0.0000000000000000    F  F  F             O1
    8.3432713868073254    7.1712777135405954    0.0000000000000000    F  F  F             O2
   13.2966556717880184    4.8177445388422262    0.0000000000000000    T  T  T             O3
   17.9466295800292350    2.6674313206979710    0.0000000000000000    T  T  T             O4
    4.8863867433859633    0.0035607944122055    0.0000000000000000    F  F  F             O5
    1.3882155113005388    5.9444834165683140    0.0000000000000000    F  F  F             O6
    6.6846133375784733    3.5822991922354483    0.0000000000000000    F  F  F             O7
   11.6690038957766973    1.1848808997448808    0.0000000000000000    T  T  T             O8
   16.8349300743820258   11.8491059088252122    0.0000000000000000    T  T  T             O9
   10.0165036809663146   10.7304918808175742    0.0000000000000000    T  T  T            O10
   15.0267978865498666    8.3009870435346453    0.0000000000000000    T  T  T            O11
    4.1337918643753797   11.3837347793087940    1.9380593166789410    F  F  F            O12
    9.1634749845945453    8.9714394089216505    1.9380593166789410    F  F  F            O13
   14.2919016405435357    6.5315054644169832    1.9380593166789410    T  T  T            O14
    1.2188358591637827    4.0495768400859253    1.9380593166789410    F  F  F            O15
    5.8646599627355611    1.7657604171672714    1.9380593166789410    F  F  F            O16
    2.3534291758529005    7.8316946444925915    1.9380593166789410    F  F  F            O17
    7.4797081734067312    5.3864411326233181    1.9380593166789410    F  F  F            O18
   12.4699131305631177    2.9956470420373162    1.9380593166789410    T  T  T            O19
   17.5993656340642595    0.7490043772821001    1.9380593166789410    T  T  T            O20
   10.8121138599334934   12.5529925285109218    1.9380593166789410    T  T  T            O21
   15.6259774199480557   10.2074712012283797    1.9380593166789410    T  T  T            O22
    1.3903564121536076   12.5163527852034608    1.9380593166789410    F  F  F            O23
    6.6808687105494222   10.1739990229064912    1.9380593166789410    F  F  F            O24
   11.7013770669524622    7.7659300766711770    1.9380593166789410    T  T  T            O25
   16.7910838940433607    5.2301488811048849    1.9380593166789410    T  T  T            O26
    3.5375703019719347    2.9287846629810668    1.9380593166789410    F  F  F            O27
   17.9440079317229575    9.0634353370176619    1.9380593166789410    T  T  T            O28
    4.8979952136512903    6.5874272269786456    1.9380593166789410    F  F  F            O29
    9.9868402188869130    4.1917640158294027    1.9380593166789410    T  T  T            O30
   14.9669066359292007    1.7763867607718737    1.9380593166789410    T  T  T            O31
    8.3232185942056525    0.5707985208000855    1.9380593166789410    F  F  F            O32
   13.2741618737706020   11.3773907400113430    1.9380593166789410    T  T  T            O33
    1.2181303659718312   10.6221332740851384    0.0000000000000000    F  F  F            O34
    5.8772620913400342    8.3590460039746475    0.0000000000000000    F  F  F            O35
   10.8328580281272426    6.0071287230875958    0.0000000000000000    T  T  T            O36
   15.6189427672871215    3.5935471034732545    0.0000000000000000    T  T  T            O37
    2.3532512270952184    1.2661331151481912    0.0000000000000000    F  F  F            O38
   17.7725913516665699    7.1557340735747195    0.0000000000000000    T  T  T            O39
    4.1312771706089189    4.8203878383101184    0.0000000000000000    F  F  F            O40
    9.1664503230919330    2.3833321917989880    0.0000000000000000    F  F  F            O41
   14.2843125014203416   13.1159586069240799    0.0000000000000000    T  T  T            O42
    7.4817150240460348   11.9502003243219477    0.0000000000000000    F  F  F            O43
   12.5072958850269220    9.5436843113202592    0.0000000000000000    T  T  T            O44
   29.2188581401016485    3.5935471034732545    0.0000000000000000    T  T  T            O45
   34.0049428792615203    6.0071287230875958    0.0000000000000000    T  T  T            O46
   38.9605388160476380    8.3590460039746475    0.0000000000000000    F  F  F            O47
   43.6196705414161130   10.6221332740851384    0.0000000000000000    F  F  F            O48
   30.5534884059667782   13.1159586069240799    0.0000000000000000    T  T  T            O49
   27.0652095557197434    7.1557340735747195    0.0000000000000000    T  T  T            O50
   32.3305050223604837    9.5436843113202592    0.0000000000000000    T  T  T            O51
   37.3560858833418976   11.9502003243219477    0.0000000000000000    F  F  F            O52
   42.4845496802924600    1.2661331151481912    0.0000000000000000    F  F  F            O53
   35.6713505842954675    2.3833321917989880    0.0000000000000000    F  F  F            O54
   40.7065237367792818    4.8203878383101184    0.0000000000000000    F  F  F            O55
   29.8708942714573773    1.7763867607718737    1.9380593166789410    T  T  T            O56
   34.8509606885002228    4.1917640158294027    1.9380593166789410    T  T  T            O57
   39.9398056937369290    6.5874272269786456    1.9380593166789410    F  F  F            O58
   26.8937929756644358    9.0634353370176619    1.9380593166789410    T  T  T            O59
   31.5636390336165213   11.3773907400113430    1.9380593166789410    T  T  T            O60
   28.0467170133448676    5.2301488811048849    1.9380593166789410    T  T  T            O61
   33.1364238404338352    7.7659300766711770    1.9380593166789410    T  T  T            O62
   38.1569321968377011   10.1739990229064912    1.9380593166789410    F  F  F            O63
   43.4474444952332277   12.5163527852034608    1.9380593166789410    F  F  F            O64
   36.5145823131822951    0.5707985208000855    1.9380593166789410    F  F  F            O65
   41.3002306054165658    2.9287846629810668    1.9380593166789410    F  F  F            O66
   27.2384352733242210    0.7490043772821001    1.9380593166789410    T  T  T            O67
   32.3678877768250857    2.9956470420373162    1.9380593166789410    T  T  T            O68
   37.3580927339814863    5.3864411326233181    1.9380593166789410    F  F  F            O69
   42.4843717315339475    7.8316946444925915    1.9380593166789410    F  F  F            O70
   29.2118234874396094   10.2074712012283797    1.9380593166789410    T  T  T            O71
   43.6189650482236146    4.0495768400859253    1.9380593166789410    F  F  F            O72
   30.5458992668438576    6.5315054644169832    1.9380593166789410    T  T  T            O73
   35.6743259227934075    8.9714394089216505    1.9380593166789410    F  F  F            O74
   40.7040090430131016   11.3837347793087940    1.9380593166789410    F  F  F            O75
   34.0256870474544613   12.5529925285109218    1.9380593166789410    T  T  T            O76
   38.9731409446521155    1.7657604171672714    1.9380593166789410    F  F  F            O77
   26.8911713273581618    2.6674313206979710    0.0000000000000000    T  T  T            O78
   31.5411452355985631    4.8177445388422262    0.0000000000000000    T  T  T            O79
   36.4945295205798104    7.1712777135405954    0.0000000000000000    F  F  F            O80
   41.3065298883009433    9.4963666581296842    0.0000000000000000    F  F  F            O81
   28.0028708330056375   11.8491059088252122    0.0000000000000000    T  T  T            O82
   43.4495853960871301    5.9444834165683140    0.0000000000000000    F  F  F            O83
   29.8110030208386156    8.3009870435346453    0.0000000000000000    T  T  T            O84
   34.8212972264213505   10.7304918808175742    0.0000000000000000    T  T  T            O85
   39.9514141640008944    0.0035607944122055    0.0000000000000000    F  F  F            O86
   33.1687970116117938    1.1848808997448808    0.0000000000000000    T  T  T            O87
   38.1531875698097451    3.5822991922354483    0.0000000000000000    F  F  F            O88
