cif2pos.py
   1.000
   43.3378009073876669    0.0000000000000000    0.0000000000000000
    0.0000000000000000   13.1421435162302842    0.0000000000000000
    0.0000000000000000    0.0000000000000000    3.8761186333578821
   U    O 
   44   88
Selective Dynamics
Cartesian
    0.0000000000000000   12.5551636873405776    0.0000000000000000    F  F  F             U1
    5.4556193949366456   10.7650118679051516    0.0000000000000000    F  F  F             U2
   10.4048822310196485    8.3614122636818404    0.0000000000000000    T  T  T             U3
   15.5951848087538405    5.9743136483512425    0.0000000000000000    T  T  T             U4
    2.2419553594642094    3.5835709747557116    0.0000000000000000    F  F  F             U5
   16.9240382186980654    9.5607335725832900    0.0000000000000000    T  T  T             U6
    3.5869503846652377    7.1643941168445258    0.0000000000000000    F  F  F             U7
    8.7664271818685293    4.7865274781975184    0.0000000000000000    F  F  F             U8
   13.7151259357491870    2.3872923175265810    0.0000000000000000    T  T  T             U9
    7.0388639731294509    1.1886095507572638    0.0000000000000000    F  F  F            U10
   12.1167571663365656   11.9497995085851354    0.0000000000000000    T  T  T            U11
    2.2562447583645913   10.1626129082921235    1.9380593166789410    F  F  F            U12
    7.0515223280738377    7.7723041446955925    1.9380593166789410    F  F  F            U13
   12.1278750098566412    5.3821097424703677    1.9380593166789410    T  T  T            U14
   16.9269919369294790    2.9827641868538479    1.9380593166789410    T  T  T            U15
    3.5588158581235505    0.5837924348378309    1.9380593166789410    F  F  F            U16
   24.1689004536938299    7.1323589743255820    1.9380593166789410    T  T  T            U17
    5.4523417914615386    4.1824315551420614    1.9380593166789410    F  F  F            U18
   10.3987210777918282    1.7855466578900987    1.9380593166789410    T  T  T            U19
   15.5800027376662058   12.5526185972609898    1.9380593166789410    T  T  T            U20
    8.7618697554031879   11.3489733561662280    1.9380593166789410    F  F  F            U21
   13.7151923676295731    8.9508375350776657    1.9380593166789410    T  T  T            U22
   24.1689004536938299    0.5577946303503825    0.0000000000000000    T  T  T            U23
   29.6226749716384781    2.3872923175265810    0.0000000000000000    T  T  T            U24
   34.5713737255191376    4.7865274781975184    0.0000000000000000    F  F  F            U25
   39.7508505227224305    7.1643941168445258    0.0000000000000000    F  F  F            U26
   26.4137626886898715    9.5607335725832900    0.0000000000000000    T  T  T            U27
   41.0958455479234530    3.5835709747557116    0.0000000000000000    F  F  F            U28
   27.7426160986340982    5.9743136483512425    0.0000000000000000    T  T  T            U29
   32.9329186763680184    8.3614122636818404    0.0000000000000000    T  T  T            U30
   37.8821815124510266   10.7650118679051516    0.0000000000000000    F  F  F            U31
   31.2210437410510977   11.9497995085851354    0.0000000000000000    T  T  T            U32
   36.2989369342582222    1.1886095507572638    0.0000000000000000    F  F  F            U33
   26.4108089704581808    2.9827641868538479    1.9380593166789410    T  T  T            U34
   31.2099258975310434    5.3821097424703677    1.9380593166789410    T  T  T            U35
   36.2862785793138301    7.7723041446955925    1.9380593166789410    F  F  F            U36
   41.0815561490230721   10.1626129082921235    1.9380593166789410    F  F  F            U37
   27.7577981697214717   12.5526185972609898    1.9380593166789410    T  T  T            U38
    0.0000000000000000    5.9944984735779778    1.9380593166789410    F  F  F            U39
   29.6226085397583638    8.9508375350776657    1.9380593166789410    T  T  T            U40
   34.5759311519844914   11.3489733561662280    1.9380593166789410    F  F  F            U41
   39.7789850492641079    0.5837924348378309    1.9380593166789410    F  F  F            U42
   32.9390798295958405    1.7855466578900987    1.9380593166789410    T  T  T            U43
   37.8854591159264018    4.1824315551420614    1.9380593166789410    F  F  F            U44
    3.5162105320509829    9.4920583288527851    0.0000000000000000    F  F  F             O1
    8.3415292521060032    7.1700188456869389    0.0000000000000000    F  F  F             O2
   13.2988569202578262    4.7894199590920072    0.0000000000000000    T  T  T             O3
   17.9518558462467652    2.4902529087688912    0.0000000000000000    T  T  T             O4
    4.8437705546808720    0.0208387775919930    0.0000000000000000    F  F  F             O5
    1.3934572286513516    5.9524228916072630    0.0000000000000000    F  F  F             O6
    6.6691481135001771    3.5968748458414410    0.0000000000000000    F  F  F             O7
   11.6801746448431221    1.1888915926260173    0.0000000000000000    T  T  T             O8
   16.8696652446687914   11.8814199269017724    0.0000000000000000    T  T  T             O9
   10.0097310679866425   10.7379853920983894    0.0000000000000000    T  T  T            O10
   15.0350921395398291    8.3369211521748792    0.0000000000000000    T  T  T            O11
    4.1395279350285925   11.3751313849136064    1.9380593166789410    F  F  F            O12
    9.1613690069501992    8.9705719082419773    1.9380593166789410    F  F  F            O13
   14.3226094847089449    6.5373035435154474    1.9380593166789410    T  T  T            O14
    1.2148895111030411    4.0732440723852283    1.9380593166789410    F  F  F            O15
    5.8695471177617335    1.7823318017075982    1.9380593166789410    F  F  F            O16
    2.3065839173730436    7.8405540140919019    1.9380593166789410    F  F  F            O17
    7.4855494254704276    5.3841661512091274    1.9380593166789410    F  F  F            O18
   12.4966542800722706    2.9757614371303402    1.9380593166789410    T  T  T            O19
   17.7762485570636990    0.6149672299900878    1.9380593166789410    T  T  T            O20
   10.8198584922537542   12.5478295993454445    1.9380593166789410    T  T  T            O21
   15.6516087384441782   10.2327380011681282    1.9380593166789410    T  T  T            O22
    1.4279645139502883   12.5018666887138803    1.9380593166789410    F  F  F            O23
    6.6766976425797901   10.1692701388308482    1.9380593166789410    F  F  F            O24
   11.7025796612835116    7.7545073705748591    1.9380593166789410    T  T  T            O25
   16.8918449624477027    5.3065961275820799    1.9380593166789410    T  T  T            O26
    3.5107865472023096    2.9083148184844974    1.9380593166789410    F  F  F            O27
   17.9511926457021822    9.0686262581668426    1.9380593166789410    T  T  T            O28
    4.8682253614092259    6.5819985872445868    1.9380593166789410    F  F  F            O29
   10.0014740884261872    4.1879357346581818    1.9380593166789410    T  T  T            O30
   15.0386739736411688    1.7692232939570103    1.9380593166789410    T  T  T            O31
    8.3252409723062559    0.5679224581755539    1.9380593166789410    F  F  F            O32
   13.2941862577574810   11.3851002430138948    1.9380593166789410    T  T  T            O33
    1.2144482588566579   10.6569643430564263    0.0000000000000000    F  F  F            O34
    5.8680091834136601    8.3510856900881194    0.0000000000000000    F  F  F            O35
   10.8394463112941128    6.0027180709076458    0.0000000000000000    T  T  T            O36
   15.6539016197582690    3.6568321245706512    0.0000000000000000    T  T  T            O37
    2.2525242611070686    1.2574675965506854    0.0000000000000000    F  F  F            O38
   17.7756428980869998    7.1930918315647627    0.0000000000000000    T  T  T            O39
    4.1279198797922101    4.8027393344133209    0.0000000000000000    F  F  F            O40
    9.1634836254952425    2.3833135623170136    0.0000000000000000    F  F  F            O41
   14.3015532515083414   13.1370019424552815    0.0000000000000000    T  T  T            O42
    7.4622789870973198   11.9548851640754883    0.0000000000000000    F  F  F            O43
   12.5027155451807861    9.5429396595563922    0.0000000000000000    T  T  T            O44
   27.6838992876294014    3.6568321245706512    0.0000000000000000    T  T  T            O45
   32.4983545960938400    6.0027180709076458    0.0000000000000000    T  T  T            O46
   37.4697917239740050    8.3510856900881194    0.0000000000000000    F  F  F            O47
   42.1233526485310108   10.6569643430564263    0.0000000000000000    F  F  F            O48
   29.0362476558790448   13.1370019424552815    0.0000000000000000    T  T  T            O49
   25.5621580093003971    7.1930918315647627    0.0000000000000000    T  T  T            O50
   30.8350853622068968    9.5429396595563922    0.0000000000000000    T  T  T            O51
   35.8755219202906233   11.9548851640754883    0.0000000000000000    F  F  F            O52
   41.0852766462808745    1.2574675965506854    0.0000000000000000    F  F  F            O53
   34.1743172818921579    2.3833135623170136    0.0000000000000000    F  F  F            O54
   39.2098810275954577    4.8027393344133209    0.0000000000000000    F  F  F            O55
   28.2991269337465035    1.7692232939570103    1.9380593166789410    T  T  T            O56
   33.3363268189612043    4.1879357346581818    1.9380593166789410    T  T  T            O57
   38.4695755459784436    6.5819985872445868    1.9380593166789410    F  F  F            O58
   25.3866082616854918    9.0686262581668426    1.9380593166789410    T  T  T            O59
   30.0436146496301895   11.3851002430138948    1.9380593166789410    T  T  T            O60
   26.4459559449399748    5.3065961275820799    1.9380593166789410    T  T  T            O61
   31.6352212461038782    7.7545073705748591    1.9380593166789410    T  T  T            O62
   36.6611032648078705   10.1692701388308482    1.9380593166789410    F  F  F            O63
   41.9098363934373666   12.5018666887138803    1.9380593166789410    F  F  F            O64
   35.0125599350816827    0.5679224581755539    1.9380593166789410    F  F  F            O65
   39.8270143601853519    2.9083148184844974    1.9380593166789410    F  F  F            O66
   25.5615523503242414    0.6149672299900878    1.9380593166789410    T  T  T            O67
   30.8411466273153927    2.9757614371303402    1.9380593166789410    T  T  T            O68
   35.8522514819175129    5.3841661512091274    1.9380593166789410    F  F  F            O69
   41.0312169900143502    7.8405540140919019    1.9380593166789410    F  F  F            O70
   27.6861921689432116   10.2327380011681282    1.9380593166789410    T  T  T            O71
   42.1229113962846213    4.0732440723852283    1.9380593166789410    F  F  F            O72
   29.0151914226787184    6.5373035435154474    1.9380593166789410    T  T  T            O73
   34.1764319004374642    8.9705719082419773    1.9380593166789410    F  F  F            O74
   39.1982729723593550   11.3751313849136064    1.9380593166789410    F  F  F            O75
   32.5179424151339163   12.5478295993454445    1.9380593166789410    T  T  T            O76
   37.4682537896259333    1.7823318017075982    1.9380593166789410    F  F  F            O77
   25.3859450611409017    2.4902529087688912    0.0000000000000000    T  T  T            O78
   30.0389439871295707    4.7894199590920072    0.0000000000000000    T  T  T            O79
   34.9962716552813760    7.1700188456869389    0.0000000000000000    F  F  F            O80
   39.8215903753366760    9.4920583288527851    0.0000000000000000    F  F  F            O81
   26.4681356627188755   11.8814199269017724    0.0000000000000000    T  T  T            O82
   41.9443436787363169    5.9524228916072630    0.0000000000000000    F  F  F            O83
   28.3027087678478395    8.3369211521748792    0.0000000000000000    T  T  T            O84
   33.3280698394007473   10.7379853920983894    0.0000000000000000    T  T  T            O85
   38.4940303527067869    0.0208387775919930    0.0000000000000000    F  F  F            O86
   31.6576262625445466    1.1888915926260173    0.0000000000000000    T  T  T            O87
   36.6686527938874889    3.5968748458414410    0.0000000000000000    F  F  F            O88
